<?xml version="1.0" encoding="ISO-8859-1"?>
<modeling>
 <generator>
  <i name="program" type="string">vasp </i>
  <i name="version" type="string">6.3.0  </i>
  <i name="subversion" type="string">20Jan22 (build Aug  4 2024 13:09:20) complex                          parallel </i>
  <i name="platform" type="string">LinuxGNU </i>
  <i name="date" type="string">2026 07 16 </i>
  <i name="time" type="string">12:18:55 </i>
 </generator>
 <incar>
  <i type="string" name="SYSTEM">Te HSE06 Calculation</i>
  <i type="string" name="PREC">High</i>
  <i type="string" name="ALGO">All</i>
  <i type="logical" name="ADDGRID"> T  </i>
  <i type="int" name="NELM">   100</i>
  <i type="int" name="IBRION">    -1</i>
  <i name="EDIFF">      0.00000100</i>
  <i type="int" name="NSW">     1</i>
  <i type="int" name="ISIF">     3</i>
  <i name="ENCUT">    520.00000000</i>
  <i type="logical" name="LREAL"> F  </i>
  <i type="int" name="ISMEAR">     0</i>
  <i name="SIGMA">      0.05000000</i>
  <i type="logical" name="LWAVE"> T  </i>
  <i type="int" name="LORBIT">    11</i>
  <i type="logical" name="LASPH"> T  </i>
  <i name="HFSCREEN">      0.20000000</i>
  <i type="logical" name="LHFCALC"> T  </i>
  <i type="string" name="PRECFOCK">Fast</i>
 </incar>
 <primitive_cell>
  <structure name="primitive_cell" >
   <crystal>
    <varray name="basis" >
     <v>       4.51385883       0.00000000      -0.00000000 </v>
     <v>      -2.25692941       3.90911690       0.00000000 </v>
     <v>      -0.00000000       0.00000000       5.95701017 </v>
    </varray>
    <i name="volume">    105.11264677 </i>
    <varray name="rec_basis" >
     <v>       0.22153994       0.12790613       0.00000000 </v>
     <v>      -0.00000000       0.25581225      -0.00000000 </v>
     <v>       0.00000000       0.00000000       0.16786945 </v>
    </varray>
   </crystal>
   <varray name="positions" >
    <v>       0.26899090       1.00000000       0.33333300 </v>
    <v>       0.00000000       0.26899090       0.66666700 </v>
    <v>       0.73100910       0.73100910       0.00000000 </v>
   </varray>
  </structure>
  <varray name="primitive_index" >
   <v type="int" >        1 </v>
   <v type="int" >        2 </v>
   <v type="int" >        3 </v>
  </varray>
 </primitive_cell>
 <kpoints>
  <generation param="Gamma">
   <v type="int" name="divisions">       8        8        8 </v>
   <v name="usershift">      0.00000000       0.00000000       0.00000000 </v>
   <v name="genvec1">      0.12500000      -0.00000000       0.00000000 </v>
   <v name="genvec2">     -0.00000000       0.12500000       0.00000000 </v>
   <v name="genvec3">      0.00000000       0.00000000       0.12500000 </v>
   <v name="shift">      0.00000000       0.00000000       0.00000000 </v>
  </generation>
  <varray name="kpointlist" >
   <v>       0.00000000       0.00000000       0.00000000 </v>
   <v>       0.12500000       0.00000000       0.00000000 </v>
   <v>       0.25000000       0.00000000       0.00000000 </v>
   <v>       0.37500000       0.00000000       0.00000000 </v>
   <v>       0.50000000       0.00000000       0.00000000 </v>
   <v>       0.12500000       0.12500000       0.00000000 </v>
   <v>       0.25000000       0.12500000       0.00000000 </v>
   <v>       0.37500000       0.12500000       0.00000000 </v>
   <v>       0.25000000       0.25000000       0.00000000 </v>
   <v>       0.37500000       0.25000000       0.00000000 </v>
   <v>       0.00000000       0.00000000       0.12500000 </v>
   <v>       0.12500000       0.00000000       0.12500000 </v>
   <v>       0.00000000       0.12500000       0.12500000 </v>
   <v>       0.25000000       0.00000000       0.12500000 </v>
   <v>       0.00000000       0.25000000       0.12500000 </v>
   <v>       0.37500000       0.00000000       0.12500000 </v>
   <v>       0.00000000       0.37500000       0.12500000 </v>
   <v>       0.50000000       0.00000000       0.12500000 </v>
   <v>       0.12500000       0.12500000       0.12500000 </v>
   <v>       0.25000000       0.12500000       0.12500000 </v>
   <v>      -0.12500000       0.37500000       0.12500000 </v>
   <v>       0.37500000       0.12500000       0.12500000 </v>
   <v>      -0.12500000       0.50000000       0.12500000 </v>
   <v>       0.25000000       0.25000000       0.12500000 </v>
   <v>       0.37500000       0.25000000       0.12500000 </v>
   <v>       0.00000000       0.00000000       0.25000000 </v>
   <v>       0.12500000       0.00000000       0.25000000 </v>
   <v>       0.00000000       0.12500000       0.25000000 </v>
   <v>       0.25000000       0.00000000       0.25000000 </v>
   <v>       0.00000000       0.25000000       0.25000000 </v>
   <v>       0.37500000       0.00000000       0.25000000 </v>
   <v>       0.00000000       0.37500000       0.25000000 </v>
   <v>       0.50000000       0.00000000       0.25000000 </v>
   <v>       0.12500000       0.12500000       0.25000000 </v>
   <v>       0.25000000       0.12500000       0.25000000 </v>
   <v>      -0.12500000       0.37500000       0.25000000 </v>
   <v>       0.37500000       0.12500000       0.25000000 </v>
   <v>      -0.12500000       0.50000000       0.25000000 </v>
   <v>       0.25000000       0.25000000       0.25000000 </v>
   <v>       0.37500000       0.25000000       0.25000000 </v>
   <v>       0.00000000       0.00000000       0.37500000 </v>
   <v>       0.12500000       0.00000000       0.37500000 </v>
   <v>       0.00000000       0.12500000       0.37500000 </v>
   <v>       0.25000000       0.00000000       0.37500000 </v>
   <v>       0.00000000       0.25000000       0.37500000 </v>
   <v>       0.37500000       0.00000000       0.37500000 </v>
   <v>       0.00000000       0.37500000       0.37500000 </v>
   <v>       0.50000000       0.00000000       0.37500000 </v>
   <v>       0.12500000       0.12500000       0.37500000 </v>
   <v>       0.25000000       0.12500000       0.37500000 </v>
   <v>      -0.12500000       0.37500000       0.37500000 </v>
   <v>       0.37500000       0.12500000       0.37500000 </v>
   <v>      -0.12500000       0.50000000       0.37500000 </v>
   <v>       0.25000000       0.25000000       0.37500000 </v>
   <v>       0.37500000       0.25000000       0.37500000 </v>
   <v>       0.00000000       0.00000000       0.50000000 </v>
   <v>       0.12500000       0.00000000       0.50000000 </v>
   <v>       0.25000000       0.00000000       0.50000000 </v>
   <v>       0.37500000       0.00000000       0.50000000 </v>
   <v>       0.50000000       0.00000000       0.50000000 </v>
   <v>       0.12500000       0.12500000       0.50000000 </v>
   <v>       0.25000000       0.12500000       0.50000000 </v>
   <v>       0.37500000       0.12500000       0.50000000 </v>
   <v>       0.25000000       0.25000000       0.50000000 </v>
   <v>       0.37500000       0.25000000       0.50000000 </v>
  </varray>
  <varray name="weights" >
   <v>       0.00195312 </v>
   <v>       0.01171875 </v>
   <v>       0.01171875 </v>
   <v>       0.01171875 </v>
   <v>       0.00585938 </v>
   <v>       0.01171875 </v>
   <v>       0.02343750 </v>
   <v>       0.02343750 </v>
   <v>       0.01171875 </v>
   <v>       0.01171875 </v>
   <v>       0.00390625 </v>
   <v>       0.01171875 </v>
   <v>       0.01171875 </v>
   <v>       0.01171875 </v>
   <v>       0.01171875 </v>
   <v>       0.01171875 </v>
   <v>       0.01171875 </v>
   <v>       0.01171875 </v>
   <v>       0.02343750 </v>
   <v>       0.02343750 </v>
   <v>       0.02343750 </v>
   <v>       0.02343750 </v>
   <v>       0.02343750 </v>
   <v>       0.02343750 </v>
   <v>       0.02343750 </v>
   <v>       0.00390625 </v>
   <v>       0.01171875 </v>
   <v>       0.01171875 </v>
   <v>       0.01171875 </v>
   <v>       0.01171875 </v>
   <v>       0.01171875 </v>
   <v>       0.01171875 </v>
   <v>       0.01171875 </v>
   <v>       0.02343750 </v>
   <v>       0.02343750 </v>
   <v>       0.02343750 </v>
   <v>       0.02343750 </v>
   <v>       0.02343750 </v>
   <v>       0.02343750 </v>
   <v>       0.02343750 </v>
   <v>       0.00390625 </v>
   <v>       0.01171875 </v>
   <v>       0.01171875 </v>
   <v>       0.01171875 </v>
   <v>       0.01171875 </v>
   <v>       0.01171875 </v>
   <v>       0.01171875 </v>
   <v>       0.01171875 </v>
   <v>       0.02343750 </v>
   <v>       0.02343750 </v>
   <v>       0.02343750 </v>
   <v>       0.02343750 </v>
   <v>       0.02343750 </v>
   <v>       0.02343750 </v>
   <v>       0.02343750 </v>
   <v>       0.00195312 </v>
   <v>       0.01171875 </v>
   <v>       0.01171875 </v>
   <v>       0.01171875 </v>
   <v>       0.00585938 </v>
   <v>       0.01171875 </v>
   <v>       0.02343750 </v>
   <v>       0.02343750 </v>
   <v>       0.01171875 </v>
   <v>       0.01171875 </v>
  </varray>
 </kpoints>
 <parameters>
  <separator name="general" >
   <i type="string" name="SYSTEM">Te HSE06 Calculation</i>
   <i type="logical" name="LCOMPAT"> F  </i>
  </separator>
  <separator name="electronic" >
   <i type="string" name="PREC">high</i>
   <i name="ENMAX">    520.00000000</i>
   <i name="ENAUG">    368.79200000</i>
   <i name="EDIFF">      0.00000100</i>
   <i type="int" name="IALGO">    58</i>
   <i type="int" name="IWAVPR">    10</i>
   <i type="int" name="NBANDS">    32</i>
   <i type="int" name="NBANDSLOW">    -1</i>
   <i type="int" name="NBANDSHIGH">    -1</i>
   <i name="NELECT">     18.00000000</i>
   <i type="int" name="TURBO">     0</i>
   <i type="int" name="IRESTART">     0</i>
   <i type="int" name="NREBOOT">     0</i>
   <i type="int" name="NMIN">     0</i>
   <i name="EREF">      0.00000000</i>
   <separator name="electronic smearing" >
    <i type="int" name="ISMEAR">     0</i>
    <i name="SIGMA">      0.05000000</i>
    <i name="KSPACING">      0.50000000</i>
    <i type="logical" name="KGAMMA"> T  </i>
    <i type="logical" name="KBLOWUP"> T  </i>
   </separator>
   <separator name="electronic projectors" >
    <i type="logical" name="LREAL"> F  </i>
    <v name="ROPT">      0.00000000</v>
    <i type="int" name="LMAXPAW">  -100</i>
    <i type="int" name="LMAXMIX">     2</i>
    <i type="logical" name="NLSPLINE"> F  </i>
   </separator>
   <separator name="electronic startup" >
    <i type="int" name="ISTART">     0</i>
    <i type="int" name="ICHARG">     2</i>
    <i type="int" name="INIWAV">     1</i>
   </separator>
   <separator name="electronic spin" >
    <i type="int" name="ISPIN">     1</i>
    <i type="logical" name="LNONCOLLINEAR"> F  </i>
    <v name="MAGMOM">      1.00000000      1.00000000      1.00000000</v>
    <i name="NUPDOWN">     -1.00000000</i>
    <i type="logical" name="LSORBIT"> F  </i>
    <v name="SAXIS">      0.00000000      0.00000000      1.00000000</v>
    <i type="logical" name="LSPIRAL"> F  </i>
    <v name="QSPIRAL">      0.00000000      0.00000000      0.00000000</v>
    <i type="logical" name="LZEROZ"> F  </i>
   </separator>
   <separator name="electronic exchange-correlation" >
    <i type="logical" name="LASPH"> T  </i>
    <i type="logical" name="LMETAGGA"> F  </i>
   </separator>
   <separator name="electronic convergence" >
    <i type="int" name="NELM">   100</i>
    <i type="int" name="NELMDL">    -5</i>
    <i type="int" name="NELMIN">     2</i>
    <i name="ENINI">    520.00000000</i>
    <separator name="electronic convergence detail" >
     <i type="logical" name="LDIAG"> T  </i>
     <i type="logical" name="LSUBROT"> F  </i>
     <i name="WEIMIN">      0.00000000</i>
     <i name="EBREAK">      0.00000001</i>
     <i name="DEPER">      0.30000000</i>
     <i type="int" name="NRMM">     4</i>
     <i name="TIME">      0.40000000</i>
    </separator>
   </separator>
   <separator name="electronic mixer" >
    <i name="AMIX">      0.40000000</i>
    <i name="BMIX">      1.00000000</i>
    <i name="AMIN">      0.10000000</i>
    <i name="AMIX_MAG">      1.60000000</i>
    <i name="BMIX_MAG">      1.00000000</i>
    <separator name="electronic mixer details" >
     <i type="int" name="IMIX">     4</i>
     <i type="logical" name="MIXFIRST"> F  </i>
     <i type="int" name="MAXMIX">   -45</i>
     <i name="WC">    100.00000000</i>
     <i type="int" name="INIMIX">     1</i>
     <i type="int" name="MIXPRE">     1</i>
     <i type="int" name="MREMOVE">     5</i>
    </separator>
   </separator>
   <separator name="electronic dipolcorrection" >
    <i type="logical" name="LDIPOL"> F  </i>
    <i type="logical" name="LMONO"> F  </i>
    <i type="int" name="IDIPOL">     0</i>
    <i name="EPSILON">      1.00000000</i>
    <v name="DIPOL">   -100.00000000   -100.00000000   -100.00000000</v>
    <i name="EFIELD">      0.00000000</i>
   </separator>
  </separator>
  <separator name="grids" >
   <i type="int" name="NGX">    36</i>
   <i type="int" name="NGY">    36</i>
   <i type="int" name="NGZ">    48</i>
   <i type="int" name="NGXF">    40</i>
   <i type="int" name="NGYF">    40</i>
   <i type="int" name="NGZF">    50</i>
   <i type="logical" name="ADDGRID"> T  </i>
  </separator>
  <separator name="ionic" >
   <i type="int" name="NSW">     1</i>
   <i type="int" name="IBRION">    -1</i>
   <i type="int" name="MDALGO">     0</i>
   <i type="int" name="ISIF">     3</i>
   <i name="PSTRESS">      0.00000000</i>
   <i name="EDIFFG">      0.00001000</i>
   <i type="int" name="NFREE">     0</i>
   <i name="POTIM">      0.50000000</i>
   <i name="SMASS">     -3.00000000</i>
   <i name="SCALEE">      1.00000000</i>
  </separator>
  <separator name="ionic md" >
   <i name="TEBEG">      0.00010000</i>
   <i name="TEEND">      0.00010000</i>
   <i type="int" name="NBLOCK">     1</i>
   <i type="int" name="KBLOCK">     1</i>
   <i type="int" name="NPACO">   256</i>
   <i name="APACO">     10.00000000</i>
  </separator>
  <separator name="symmetry" >
   <i type="int" name="ISYM">     3</i>
   <i name="SYMPREC">      0.00001000</i>
  </separator>
  <separator name="dos" >
   <i type="int" name="LORBIT">    11</i>
   <v name="RWIGS">     -1.00000000</v>
   <i type="int" name="NEDOS">   301</i>
   <i name="EMIN">     10.00000000</i>
   <i name="EMAX">    -10.00000000</i>
   <i name="EFERMI">      0.00000000</i>
  </separator>
  <separator name="writing" >
   <i type="int" name="NWRITE">     2</i>
   <i type="logical" name="LWAVE"> T  </i>
   <i type="logical" name="LDOWNSAMPLE"> F  </i>
   <i type="logical" name="LCHARG"> T  </i>
   <i type="logical" name="LPARD"> F  </i>
   <i type="logical" name="LVTOT"> F  </i>
   <i type="logical" name="LVHAR"> F  </i>
   <i type="logical" name="LELF"> F  </i>
   <i type="logical" name="LOPTICS"> F  </i>
   <v name="STM">      0.00000000      0.00000000      0.00000000      0.00000000      0.00000000      0.00000000      0.00000000</v>
  </separator>
  <separator name="performance" >
   <i type="int" name="NPAR">    32</i>
   <i type="int" name="NSIM">     4</i>
   <i type="int" name="NBLK">    -1</i>
   <i type="logical" name="LPLANE"> T  </i>
   <i type="logical" name="LSCALAPACK"> T  </i>
   <i type="logical" name="LSCAAWARE"> F  </i>
   <i type="logical" name="LSCALU"> F  </i>
   <i type="logical" name="LASYNC"> F  </i>
   <i type="logical" name="LORBITALREAL"> F  </i>
  </separator>
  <separator name="miscellaneous" >
   <i type="int" name="IDIOT">     3</i>
   <i type="int" name="PHON_NSTRUCT">    -1</i>
   <i type="logical" name="LMUSIC"> F  </i>
   <v name="POMASS">    127.60000000</v>
   <v name="DARWINR">      0.00000000</v>
   <v name="DARWINV">      1.00000000</v>
   <i type="logical" name="LCORR"> T  </i>
  </separator>
  <i type="logical" name="GGA_COMPAT"> T  </i>
  <i type="logical" name="LBERRY"> F  </i>
  <i type="int" name="ICORELEVEL">     0</i>
  <i type="logical" name="LDAU"> F  </i>
  <i type="int" name="I_CONSTRAINED_M">     0</i>
  <separator name="electronic exchange-correlation" >
   <i type="string" name="GGA">--</i>
   <i type="int" name="VOSKOWN">     0</i>
   <i type="logical" name="LHFCALC"> T  </i>
   <i type="string" name="PRECFOCK">fast</i>
   <i type="logical" name="LSYMGRAD"> F  </i>
   <i type="logical" name="LHFONE"> F  </i>
   <i type="logical" name="LRHFCALC"> F  </i>
   <i type="logical" name="LTHOMAS"> F  </i>
   <i type="logical" name="LMODELHF"> F  </i>
   <i type="logical" name="LFOCKACE"> T  </i>
   <i name="ENCUT4O">     -1.00000000</i>
   <i type="int" name="EXXOEP">     0</i>
   <i type="int" name="FOURORBIT">     0</i>
   <i name="AEXX">      0.25000000</i>
   <i name="HFALPHA">     -1.00000000</i>
   <i name="MCALPHA">      0.00000000</i>
   <i name="ALDAX">      0.75000000</i>
   <i name="AGGAX">      0.75000000</i>
   <i name="ALDAC">      1.00000000</i>
   <i name="AGGAC">      1.00000000</i>
   <i type="int" name="NKREDX">     1</i>
   <i type="int" name="NKREDY">     1</i>
   <i type="int" name="NKREDZ">     1</i>
   <i type="logical" name="SHIFTRED"> F  </i>
   <i type="logical" name="ODDONLY"> F  </i>
   <i type="logical" name="EVENONLY"> F  </i>
   <i type="int" name="LMAXFOCK">     4</i>
   <i type="int" name="NMAXFOCKAE">     1</i>
   <i type="logical" name="LFOCKAEDFT"> F  </i>
   <i name="HFSCREEN">      0.20000000</i>
   <i name="HFSCREENC">      0.20000000</i>
   <i type="int" name="NBANDSGWLOW">     1</i>
  </separator>
  <separator name="vdW DFT" >
   <i type="logical" name="LUSE_VDW"> F  </i>
   <i name="Zab_VDW">     -0.84910000</i>
   <i name="PARAM1">      0.12340000</i>
   <i name="PARAM2">      1.00000000</i>
   <i name="PARAM3">      0.00000000</i>
  </separator>
  <separator name="model GW" >
   <i type="int" name="MODEL_GW">     0</i>
   <i name="MODEL_EPS0">     21.02252935</i>
   <i name="MODEL_ALPHA">      1.00000000</i>
  </separator>
  <separator name="linear response parameters" >
   <i type="logical" name="LEPSILON"> F  </i>
   <i type="logical" name="LRPA"> F  </i>
   <i type="logical" name="LNABLA"> F  </i>
   <i type="logical" name="LVEL"> F  </i>
   <i name="CSHIFT">      0.10000000</i>
   <i name="OMEGAMAX">     -1.00000000</i>
   <i name="DEG_THRESHOLD">      0.00200000</i>
   <i name="RTIME">     -0.10000000</i>
   <i name="WPLASMAI">      0.00000000</i>
   <v name="DFIELD">      0.00000000      0.00000000      0.00000000</v>
   <v name="WPLASMA">      0.00000000      0.00000000      0.00000000      0.00000000      0.00000000      0.00000000      0.00000000      0.00000000      0.00000000</v>
  </separator>
  <separator name="orbital magnetization" >
   <i type="logical" name="NUCIND"> F  </i>
   <v name="MAGPOS">      0.00000000      0.00000000      0.00000000</v>
   <i type="logical" name="LNICSALL"> T  </i>
   <i type="logical" name="ORBITALMAG"> F  </i>
   <i type="logical" name="LMAGBLOCH"> F  </i>
   <i type="logical" name="LCHIMAG"> F  </i>
   <i type="logical" name="LGAUGE"> T  </i>
   <i type="int" name="MAGATOM">     0</i>
   <v name="MAGDIPOL">      0.00000000      0.00000000      0.00000000</v>
   <v name="AVECCONST">      0.00000000      0.00000000      0.00000000</v>
  </separator>
  <separator name="response functions" >
   <i type="logical" name="LFINITE_TEMPERATURE"> F  </i>
   <i type="logical" name="LADDER"> F  </i>
   <i type="logical" name="LRPAFORCE"> F  </i>
   <i type="logical" name="LFXC"> F  </i>
   <i type="logical" name="LHARTREE"> T  </i>
   <i type="int" name="IBSE">     0</i>
   <v type="int" name="KPOINT">    -1     0     0     0</v>
   <i type="logical" name="LTCTC"> F  </i>
   <i type="logical" name="LTCTE"> F  </i>
   <i type="logical" name="LTETE"> F  </i>
   <i type="logical" name="LTRIPLET"> F  </i>
   <i type="logical" name="LFXCEPS"> F  </i>
   <i type="logical" name="LFXHEG"> F  </i>
   <i type="int" name="NATURALO">     2</i>
   <i type="logical" name="LHOLEGF"> F  </i>
   <i type="logical" name="L2ORDER"> F  </i>
   <i type="logical" name="LDMP1"> F  </i>
   <i type="logical" name="LMP2LT"> F  </i>
   <i type="logical" name="LSMP2LT"> F  </i>
   <i type="logical" name="LGWLF"> F  </i>
   <i name="ENCUTGW">     -2.00000000</i>
   <i name="ENCUTGWSOFT">     -2.00000000</i>
   <i name="ENCUTLF">     -1.00000000</i>
   <i type="logical" name="LESF_SPLINES"> F  </i>
   <i type="int" name="LMAXMP2">    -1</i>
   <i name="SCISSOR">      0.00000000</i>
   <i type="int" name="NOMEGA">     0</i>
   <i type="int" name="NOMEGAR">     0</i>
   <i type="int" name="NBANDSGW">    -1</i>
   <i type="int" name="NBANDSO">    -1</i>
   <i type="int" name="NBANDSV">    -1</i>
   <i type="int" name="NELMGW">     1</i>
   <i type="int" name="NELMHF">     1</i>
   <i type="int" name="DIM">     3</i>
   <i type="int" name="IESPILON">     4</i>
   <i type="int" name="ANTIRES">     0</i>
   <i name="OMEGAMAX">    -30.00000000</i>
   <i name="OMEGAMIN">    -30.00000000</i>
   <i name="OMEGATL">   -200.00000000</i>
   <i type="int" name="OMEGAGRID">     0</i>
   <i name="CSHIFT">     -0.10000000</i>
   <i type="logical" name="LSELFENERGY"> F  </i>
   <i type="logical" name="LSPECTRAL"> F  </i>
   <i type="logical" name="LSPECTRALGW"> F  </i>
   <i type="logical" name="LSINGLES"> F  </i>
   <i type="logical" name="LFERMIGW"> F  </i>
   <i type="logical" name="ODDONLYGW"> F  </i>
   <i type="logical" name="EVENONLYGW"> F  </i>
   <i type="int" name="NKREDLFX">     1</i>
   <i type="int" name="NKREDLFY">     1</i>
   <i type="int" name="NKREDLFZ">     1</i>
   <i type="int" name="MAXMEM">  2800</i>
   <i type="int" name="TELESCOPE">     0</i>
   <i type="int" name="NTAUPAR">    -1</i>
   <i type="int" name="NOMEGAPAR">    -1</i>
   <i name="DAMP_NEWTON">      0.80000001</i>
   <i name="LAMBDA">      1.00000000</i>
  </separator>
  <separator name="External order field" >
   <i name="OFIELD_KAPPA">      0.00000000</i>
   <v name="OFIELD_K">      0.00000000      0.00000000      0.00000000</v>
   <i name="OFIELD_Q6_NEAR">      0.00000000</i>
   <i name="OFIELD_Q6_FAR">      0.00000000</i>
   <i name="OFIELD_A">      0.00000000</i>
  </separator>
  <separator name="optional k-points parameters" >
   <i type="int" name="KPOINTS_OPT_MODE">     1</i>
   <i type="logical" name="LKPOINTS_OPT"> F  </i>
  </separator>
 </parameters>
 <atominfo>
  <atoms>       3 </atoms>
  <types>       1 </types>
  <array name="atoms" >
   <dimension dim="1">ion</dimension>
   <field type="string">element</field>
   <field type="int">atomtype</field>
   <set>
    <rc><c>Te</c><c>   1</c></rc>
    <rc><c>Te</c><c>   1</c></rc>
    <rc><c>Te</c><c>   1</c></rc>
   </set>
  </array>
  <array name="atomtypes" >
   <dimension dim="1">type</dimension>
   <field type="int">atomspertype</field>
   <field type="string">element</field>
   <field>mass</field>
   <field>valence</field>
   <field type="string">pseudopotential</field>
   <set>
    <rc><c>   3</c><c>Te</c><c>    127.60000000</c><c>      6.00000000</c><c> PAW_PBE Te 08Apr2002                   </c></rc>
   </set>
  </array>
 </atominfo>
 <structure name="initialpos" >
  <crystal>
   <varray name="basis" >
    <v>       4.51385883       0.00000000      -0.00000000 </v>
    <v>      -2.25692941       3.90911690       0.00000000 </v>
    <v>      -0.00000000       0.00000000       5.95701017 </v>
   </varray>
   <i name="volume">    105.11264677 </i>
   <varray name="rec_basis" >
    <v>       0.22153994       0.12790613       0.00000000 </v>
    <v>      -0.00000000       0.25581225      -0.00000000 </v>
    <v>       0.00000000       0.00000000       0.16786945 </v>
   </varray>
  </crystal>
  <varray name="positions" >
   <v>       0.26899090       0.00000000       0.33333300 </v>
   <v>       0.00000000       0.26899090       0.66666700 </v>
   <v>       0.73100910       0.73100910       0.00000000 </v>
  </varray>
  <varray name="velocities" >
   <v>       0.00000000       0.00000000       0.00000000 </v>
   <v>       0.00000000       0.00000000       0.00000000 </v>
   <v>       0.00000000       0.00000000       0.00000000 </v>
  </varray>
 </structure>
 <calculation>
  <scstep>
   <time name="total">    1.61    1.61</time>
   <energy>
    <i name="alphaZ">      2.22382979 </i>
    <i name="ewald">   -667.62859706 </i>
    <i name="hartreedc">    -45.42596850 </i>
    <i name="XCdc">    -84.26000411 </i>
    <i name="pawpsdc">    310.37686057 </i>
    <i name="pawaedc">  -3618.72820613 </i>
    <i name="eentropy">     -0.00171123 </i>
    <i name="bandstr">     43.23808030 </i>
    <i name="atom">    661.69422737 </i>
    <i name="e_fr_energy">  -3398.51148900 </i>
    <i name="e_wo_entrp">  -3398.50977777 </i>
    <i name="e_0_energy">  -3398.51063339 </i>
   </energy>
  </scstep>
  <scstep>
   <time name="total">    2.56    2.56</time>
   <energy>
    <i name="e_fr_energy">  -3455.49068583 </i>
    <i name="e_wo_entrp">  -3455.49068583 </i>
    <i name="e_0_energy">  -3455.49068583 </i>
   </energy>
  </scstep>
  <scstep>
   <time name="total">    2.14    2.14</time>
   <energy>
    <i name="e_fr_energy">  -3456.46386894 </i>
    <i name="e_wo_entrp">  -3456.46386894 </i>
    <i name="e_0_energy">  -3456.46386894 </i>
   </energy>
  </scstep>
  <scstep>
   <time name="total">    4.87    4.87</time>
   <energy>
    <i name="e_fr_energy">  -3456.47032542 </i>
    <i name="e_wo_entrp">  -3456.47032542 </i>
    <i name="e_0_energy">  -3456.47032542 </i>
   </energy>
  </scstep>
  <scstep>
   <time name="total">  420.06  420.12</time>
   <energy>
    <i name="e_fr_energy">    -13.91255599 </i>
    <i name="e_wo_entrp">    -13.91255599 </i>
    <i name="e_0_energy">    -13.91255599 </i>
   </energy>
  </scstep>
  <scstep>
   <time name="total">  843.00  843.08</time>
   <energy>
    <i name="e_fr_energy">    -13.88864735 </i>
    <i name="e_wo_entrp">    -13.88864735 </i>
    <i name="e_0_energy">    -13.88864735 </i>
   </energy>
  </scstep>
  <scstep>
   <time name="total">  839.10  839.15</time>
   <energy>
    <i name="e_fr_energy">    -13.91581286 </i>
    <i name="e_wo_entrp">    -13.91581286 </i>
    <i name="e_0_energy">    -13.91581286 </i>
   </energy>
  </scstep>
  <scstep>
   <time name="total">  837.69  837.75</time>
   <energy>
    <i name="e_fr_energy">    -13.92142479 </i>
    <i name="e_wo_entrp">    -13.92142479 </i>
    <i name="e_0_energy">    -13.92142479 </i>
   </energy>
  </scstep>
  <scstep>
   <time name="total">  840.05  840.12</time>
   <energy>
    <i name="e_fr_energy">    -13.92223668 </i>
    <i name="e_wo_entrp">    -13.92223668 </i>
    <i name="e_0_energy">    -13.92223668 </i>
   </energy>
  </scstep>
  <scstep>
   <time name="total">  834.07  834.12</time>
   <energy>
    <i name="e_fr_energy">    -13.92238738 </i>
    <i name="e_wo_entrp">    -13.92238738 </i>
    <i name="e_0_energy">    -13.92238738 </i>
   </energy>
  </scstep>
  <scstep>
   <time name="total">  838.10  838.16</time>
   <energy>
    <i name="e_fr_energy">    -13.92241780 </i>
    <i name="e_wo_entrp">    -13.92241780 </i>
    <i name="e_0_energy">    -13.92241780 </i>
   </energy>
  </scstep>
  <scstep>
   <time name="total">  835.78  835.82</time>
   <energy>
    <i name="e_fr_energy">    -13.92242284 </i>
    <i name="e_wo_entrp">    -13.92242284 </i>
    <i name="e_0_energy">    -13.92242284 </i>
   </energy>
  </scstep>
  <scstep>
   <time name="total"> 1254.85 1254.91</time>
   <energy>
    <i name="alphaZ">      2.22382979 </i>
    <i name="ewald">   -667.62859706 </i>
    <i name="hartreedc">    -44.78031006 </i>
    <i name="XCdc">    -68.07558444 </i>
    <i name="pawpsdc">    302.93192953 </i>
    <i name="pawaedc">   -209.80308889 </i>
    <i name="eentropy">     -0.00000000 </i>
    <i name="bandstr">    -14.63200788 </i>
    <i name="atom">    661.69422737 </i>
    <i name="e_fr_energy">    -13.92242356 </i>
    <i name="e_wo_entrp">    -13.92242356 </i>
    <i name="e_0_energy">    -13.92242356 </i>
   </energy>
  </scstep>
  <structure>
   <crystal>
    <varray name="basis" >
     <v>       4.51385883       0.00000000      -0.00000000 </v>
     <v>      -2.25692941       3.90911690       0.00000000 </v>
     <v>      -0.00000000       0.00000000       5.95701017 </v>
    </varray>
    <i name="volume">    105.11264677 </i>
    <varray name="rec_basis" >
     <v>       0.22153994       0.12790613       0.00000000 </v>
     <v>      -0.00000000       0.25581225      -0.00000000 </v>
     <v>       0.00000000       0.00000000       0.16786945 </v>
    </varray>
   </crystal>
   <varray name="positions" >
    <v>       0.26899090       0.00000000       0.33333300 </v>
    <v>       0.00000000       0.26899090       0.66666700 </v>
    <v>       0.73100910       0.73100910       0.00000000 </v>
   </varray>
  </structure>
  <varray name="forces" >
   <v>      -0.41450214      -0.00000000       0.00000000 </v>
   <v>       0.20725107      -0.35896942      -0.00000000 </v>
   <v>       0.20725107       0.35896942       0.00000000 </v>
  </varray>
  <varray name="stress" >
   <v>     -12.41383797       0.00000000       0.00000000 </v>
   <v>      -0.00000000     -12.41384105      -0.00000000 </v>
   <v>       0.00000000      -0.00000000     -22.72683920 </v>
  </varray>
  <energy>
   <i name="e_fr_energy">    -13.92242356 </i>
   <i name="e_wo_entrp">    -13.92242356 </i>
   <i name="e_0_energy">    -13.92242356 </i>
  </energy>
  <time name="totalsc"> 7835.86 7836.46</time>
  <eigenvalues>
   <array>
    <dimension dim="1">band</dimension>
    <dimension dim="2">kpoint</dimension>
    <dimension dim="3">spin</dimension>
    <field>eigene</field>
    <field>occ</field>
    <set>
     <set comment="spin 1">
      <set comment="kpoint 1">
       <r>   -9.4785    1.0000 </r>
       <r>   -5.9064    1.0000 </r>
       <r>   -5.9064    1.0000 </r>
       <r>    2.0039    1.0000 </r>
       <r>    2.3726    1.0000 </r>
       <r>    2.3726    1.0000 </r>
       <r>    3.4243    1.0000 </r>
       <r>    3.4243    1.0000 </r>
       <r>    4.2853    1.0000 </r>
       <r>    6.7398    0.0000 </r>
       <r>    6.7398    0.0000 </r>
       <r>    7.3666    0.0000 </r>
       <r>   10.8630    0.0000 </r>
       <r>   10.8630    0.0000 </r>
       <r>   11.8285    0.0000 </r>
       <r>   12.2042    0.0000 </r>
       <r>   12.2043    0.0000 </r>
       <r>   12.4796    0.0000 </r>
       <r>   12.5486    0.0000 </r>
       <r>   13.4797    0.0000 </r>
       <r>   13.4797    0.0000 </r>
       <r>   16.4590    0.0000 </r>
       <r>   16.4590    0.0000 </r>
       <r>   21.2934    0.0000 </r>
       <r>   21.2934    0.0000 </r>
       <r>   21.4540    0.0000 </r>
       <r>   21.9436    0.0000 </r>
       <r>   22.9121    0.0000 </r>
       <r>   22.9166    0.0000 </r>
       <r>   23.5807    0.0000 </r>
       <r>   23.8794    0.0000 </r>
       <r>   23.9264    0.0000 </r>
      </set>
      <set comment="kpoint 2">
       <r>   -9.3659    1.0000 </r>
       <r>   -5.9450    1.0000 </r>
       <r>   -5.8779    1.0000 </r>
       <r>    1.2217    1.0000 </r>
       <r>    1.8362    1.0000 </r>
       <r>    2.0825    1.0000 </r>
       <r>    3.7734    1.0000 </r>
       <r>    4.0872    1.0000 </r>
       <r>    4.5052    1.0000 </r>
       <r>    6.4412    0.0000 </r>
       <r>    6.6628    0.0000 </r>
       <r>    7.2311    0.0000 </r>
       <r>   10.5475    0.0000 </r>
       <r>   10.8421    0.0000 </r>
       <r>   11.9917    0.0000 </r>
       <r>   12.2907    0.0000 </r>
       <r>   12.6011    0.0000 </r>
       <r>   12.7533    0.0000 </r>
       <r>   13.1565    0.0000 </r>
       <r>   14.2746    0.0000 </r>
       <r>   14.4503    0.0000 </r>
       <r>   16.8362    0.0000 </r>
       <r>   16.9508    0.0000 </r>
       <r>   20.0430    0.0000 </r>
       <r>   20.2983    0.0000 </r>
       <r>   21.4643    0.0000 </r>
       <r>   21.8476    0.0000 </r>
       <r>   22.1850    0.0000 </r>
       <r>   22.4096    0.0000 </r>
       <r>   22.7844    0.0000 </r>
       <r>   23.1541    0.0000 </r>
       <r>   24.1515    0.0000 </r>
      </set>
      <set comment="kpoint 3">
       <r>   -9.0487    1.0000 </r>
       <r>   -6.1221    1.0000 </r>
       <r>   -5.8021    1.0000 </r>
       <r>    0.3636    1.0000 </r>
       <r>    1.1633    1.0000 </r>
       <r>    1.6229    1.0000 </r>
       <r>    3.6682    1.0000 </r>
       <r>    4.1908    1.0000 </r>
       <r>    4.3509    1.0000 </r>
       <r>    6.5685    0.0000 </r>
       <r>    6.7814    0.0000 </r>
       <r>    7.6007    0.0000 </r>
       <r>    9.6758    0.0000 </r>
       <r>   11.2100    0.0000 </r>
       <r>   12.3751    0.0000 </r>
       <r>   13.1168    0.0000 </r>
       <r>   13.6819    0.0000 </r>
       <r>   14.1906    0.0000 </r>
       <r>   14.4994    0.0000 </r>
       <r>   15.2877    0.0000 </r>
       <r>   16.3941    0.0000 </r>
       <r>   17.7147    0.0000 </r>
       <r>   17.9257    0.0000 </r>
       <r>   19.1085    0.0000 </r>
       <r>   19.2804    0.0000 </r>
       <r>   19.7383    0.0000 </r>
       <r>   20.0150    0.0000 </r>
       <r>   20.8293    0.0000 </r>
       <r>   21.3002    0.0000 </r>
       <r>   21.8285    0.0000 </r>
       <r>   22.3819    0.0000 </r>
       <r>   23.6464    0.0000 </r>
      </set>
      <set comment="kpoint 4">
       <r>   -8.6157    1.0000 </r>
       <r>   -6.4782    1.0000 </r>
       <r>   -5.7168    1.0000 </r>
       <r>    0.0929    1.0000 </r>
       <r>    0.7100    1.0000 </r>
       <r>    1.3193    1.0000 </r>
       <r>    2.3825    1.0000 </r>
       <r>    4.2259    1.0000 </r>
       <r>    4.3625    1.0000 </r>
       <r>    6.5553    0.0000 </r>
       <r>    6.6952    0.0000 </r>
       <r>    8.9256    0.0000 </r>
       <r>    9.0259    0.0000 </r>
       <r>   12.2641    0.0000 </r>
       <r>   13.4308    0.0000 </r>
       <r>   14.2689    0.0000 </r>
       <r>   14.7453    0.0000 </r>
       <r>   15.7111    0.0000 </r>
       <r>   16.0490    0.0000 </r>
       <r>   16.4653    0.0000 </r>
       <r>   16.7310    0.0000 </r>
       <r>   17.4004    0.0000 </r>
       <r>   17.5512    0.0000 </r>
       <r>   17.9308    0.0000 </r>
       <r>   19.3030    0.0000 </r>
       <r>   19.4100    0.0000 </r>
       <r>   19.9189    0.0000 </r>
       <r>   20.1801    0.0000 </r>
       <r>   20.6246    0.0000 </r>
       <r>   20.8835    0.0000 </r>
       <r>   21.4637    0.0000 </r>
       <r>   22.3785    0.0000 </r>
      </set>
      <set comment="kpoint 5">
       <r>   -8.3587    1.0000 </r>
       <r>   -6.7234    1.0000 </r>
       <r>   -5.6788    1.0000 </r>
       <r>    0.1232    1.0000 </r>
       <r>    0.6083    1.0000 </r>
       <r>    1.4098    1.0000 </r>
       <r>    1.5341    1.0000 </r>
       <r>    4.1846    1.0000 </r>
       <r>    4.3634    1.0000 </r>
       <r>    6.5557    0.0000 </r>
       <r>    6.6353    0.0000 </r>
       <r>    8.7967    0.0000 </r>
       <r>    9.5654    0.0000 </r>
       <r>   13.2877    0.0000 </r>
       <r>   14.5908    0.0000 </r>
       <r>   14.9122    0.0000 </r>
       <r>   15.0731    0.0000 </r>
       <r>   15.4117    0.0000 </r>
       <r>   15.6675    0.0000 </r>
       <r>   16.4198    0.0000 </r>
       <r>   17.3709    0.0000 </r>
       <r>   17.5444    0.0000 </r>
       <r>   17.8383    0.0000 </r>
       <r>   18.2082    0.0000 </r>
       <r>   18.5311    0.0000 </r>
       <r>   18.6525    0.0000 </r>
       <r>   18.8597    0.0000 </r>
       <r>   19.6631    0.0000 </r>
       <r>   21.0714    0.0000 </r>
       <r>   21.7698    0.0000 </r>
       <r>   21.8830    0.0000 </r>
       <r>   22.2994    0.0000 </r>
      </set>
      <set comment="kpoint 6">
       <r>   -9.1504    1.0000 </r>
       <r>   -6.0271    1.0000 </r>
       <r>   -5.8547    1.0000 </r>
       <r>    0.6395    1.0000 </r>
       <r>    0.9883    1.0000 </r>
       <r>    2.1865    1.0000 </r>
       <r>    3.4767    1.0000 </r>
       <r>    4.3130    1.0000 </r>
       <r>    4.3448    1.0000 </r>
       <r>    6.5822    0.0000 </r>
       <r>    6.8779    0.0000 </r>
       <r>    7.3605    0.0000 </r>
       <r>   10.2985    0.0000 </r>
       <r>   10.4321    0.0000 </r>
       <r>   12.3491    0.0000 </r>
       <r>   12.8334    0.0000 </r>
       <r>   13.2475    0.0000 </r>
       <r>   13.9364    0.0000 </r>
       <r>   13.9953    0.0000 </r>
       <r>   15.3517    0.0000 </r>
       <r>   15.5167    0.0000 </r>
       <r>   17.6257    0.0000 </r>
       <r>   17.7427    0.0000 </r>
       <r>   19.2035    0.0000 </r>
       <r>   19.3130    0.0000 </r>
       <r>   19.8845    0.0000 </r>
       <r>   20.5592    0.0000 </r>
       <r>   21.1262    0.0000 </r>
       <r>   22.6063    0.0000 </r>
       <r>   22.7729    0.0000 </r>
       <r>   23.1174    0.0000 </r>
       <r>   23.5877    0.0000 </r>
      </set>
      <set comment="kpoint 7">
       <r>   -8.7672    1.0000 </r>
       <r>   -6.2618    1.0000 </r>
       <r>   -5.8329    1.0000 </r>
       <r>    0.2089    1.0000 </r>
       <r>    0.5741    1.0000 </r>
       <r>    1.7974    1.0000 </r>
       <r>    3.0434    1.0000 </r>
       <r>    3.5402    1.0000 </r>
       <r>    3.9811    1.0000 </r>
       <r>    7.0582    0.0000 </r>
       <r>    7.3633    0.0000 </r>
       <r>    8.1449    0.0000 </r>
       <r>    9.6938    0.0000 </r>
       <r>   10.9034    0.0000 </r>
       <r>   13.1111    0.0000 </r>
       <r>   13.7941    0.0000 </r>
       <r>   14.6666    0.0000 </r>
       <r>   15.1304    0.0000 </r>
       <r>   15.2198    0.0000 </r>
       <r>   16.2918    0.0000 </r>
       <r>   17.0145    0.0000 </r>
       <r>   17.4552    0.0000 </r>
       <r>   17.8012    0.0000 </r>
       <r>   18.3218    0.0000 </r>
       <r>   19.1985    0.0000 </r>
       <r>   19.6597    0.0000 </r>
       <r>   19.9824    0.0000 </r>
       <r>   20.3254    0.0000 </r>
       <r>   21.1314    0.0000 </r>
       <r>   21.2668    0.0000 </r>
       <r>   21.7867    0.0000 </r>
       <r>   22.0994    0.0000 </r>
      </set>
      <set comment="kpoint 8">
       <r>   -8.3811    1.0000 </r>
       <r>   -6.5926    1.0000 </r>
       <r>   -5.8104    1.0000 </r>
       <r>    0.1922    1.0000 </r>
       <r>    0.5465    1.0000 </r>
       <r>    1.4615    1.0000 </r>
       <r>    1.9294    1.0000 </r>
       <r>    3.5590    1.0000 </r>
       <r>    3.7078    1.0000 </r>
       <r>    7.1504    0.0000 </r>
       <r>    7.4210    0.0000 </r>
       <r>    9.2514    0.0000 </r>
       <r>    9.3383    0.0000 </r>
       <r>   12.1197    0.0000 </r>
       <r>   13.9717    0.0000 </r>
       <r>   14.4204    0.0000 </r>
       <r>   15.1009    0.0000 </r>
       <r>   15.5695    0.0000 </r>
       <r>   16.2347    0.0000 </r>
       <r>   16.5166    0.0000 </r>
       <r>   17.0170    0.0000 </r>
       <r>   17.4479    0.0000 </r>
       <r>   17.9151    0.0000 </r>
       <r>   18.3126    0.0000 </r>
       <r>   18.7479    0.0000 </r>
       <r>   19.2316    0.0000 </r>
       <r>   19.7981    0.0000 </r>
       <r>   20.3454    0.0000 </r>
       <r>   20.5344    0.0000 </r>
       <r>   20.8160    0.0000 </r>
       <r>   21.6288    0.0000 </r>
       <r>   22.0576    0.0000 </r>
      </set>
      <set comment="kpoint 9">
       <r>   -8.4022    1.0000 </r>
       <r>   -6.3948    1.0000 </r>
       <r>   -6.0099    1.0000 </r>
       <r>    0.3321    1.0000 </r>
       <r>    0.3823    1.0000 </r>
       <r>    1.8018    1.0000 </r>
       <r>    2.4934    1.0000 </r>
       <r>    2.8886    1.0000 </r>
       <r>    2.9126    1.0000 </r>
       <r>    7.9549    0.0000 </r>
       <r>    8.3207    0.0000 </r>
       <r>    8.4991    0.0000 </r>
       <r>   10.2888    0.0000 </r>
       <r>   10.7689    0.0000 </r>
       <r>   13.3767    0.0000 </r>
       <r>   14.0717    0.0000 </r>
       <r>   15.3873    0.0000 </r>
       <r>   15.4807    0.0000 </r>
       <r>   16.1134    0.0000 </r>
       <r>   16.2953    0.0000 </r>
       <r>   16.8858    0.0000 </r>
       <r>   17.3882    0.0000 </r>
       <r>   18.5372    0.0000 </r>
       <r>   18.6740    0.0000 </r>
       <r>   19.1969    0.0000 </r>
       <r>   19.8025    0.0000 </r>
       <r>   19.8437    0.0000 </r>
       <r>   19.9141    0.0000 </r>
       <r>   20.9900    0.0000 </r>
       <r>   21.0914    0.0000 </r>
       <r>   22.2300    0.0000 </r>
       <r>   22.8640    0.0000 </r>
      </set>
      <set comment="kpoint 10">
       <r>   -8.2038    1.0000 </r>
       <r>   -6.4812    1.0000 </r>
       <r>   -6.1175    1.0000 </r>
       <r>    0.4356    1.0000 </r>
       <r>    0.5423    1.0000 </r>
       <r>    1.8167    1.0000 </r>
       <r>    1.8530    1.0000 </r>
       <r>    2.6183    1.0000 </r>
       <r>    2.6670    1.0000 </r>
       <r>    8.1964    0.0000 </r>
       <r>    8.4965    0.0000 </r>
       <r>    9.0990    0.0000 </r>
       <r>   10.3238    0.0000 </r>
       <r>   11.7067    0.0000 </r>
       <r>   12.4053    0.0000 </r>
       <r>   14.3716    0.0000 </r>
       <r>   14.6843    0.0000 </r>
       <r>   15.2756    0.0000 </r>
       <r>   16.6526    0.0000 </r>
       <r>   16.7927    0.0000 </r>
       <r>   17.8689    0.0000 </r>
       <r>   17.8794    0.0000 </r>
       <r>   18.3745    0.0000 </r>
       <r>   18.5448    0.0000 </r>
       <r>   19.0573    0.0000 </r>
       <r>   19.1124    0.0000 </r>
       <r>   19.8521    0.0000 </r>
       <r>   20.2144    0.0000 </r>
       <r>   21.0407    0.0000 </r>
       <r>   21.1305    0.0000 </r>
       <r>   21.8827    0.0000 </r>
       <r>   22.2110    0.0000 </r>
      </set>
      <set comment="kpoint 11">
       <r>   -9.4172    1.0000 </r>
       <r>   -6.6645    1.0000 </r>
       <r>   -5.1340    1.0000 </r>
       <r>    2.0386    1.0000 </r>
       <r>    2.0469    1.0000 </r>
       <r>    2.5523    1.0000 </r>
       <r>    3.4779    1.0000 </r>
       <r>    3.4951    1.0000 </r>
       <r>    4.2785    1.0000 </r>
       <r>    6.6125    0.0000 </r>
       <r>    6.6434    0.0000 </r>
       <r>    7.1968    0.0000 </r>
       <r>   10.6419    0.0000 </r>
       <r>   11.2701    0.0000 </r>
       <r>   11.8267    0.0000 </r>
       <r>   12.0445    0.0000 </r>
       <r>   12.1245    0.0000 </r>
       <r>   12.3147    0.0000 </r>
       <r>   13.3571    0.0000 </r>
       <r>   13.3818    0.0000 </r>
       <r>   14.3254    0.0000 </r>
       <r>   15.1259    0.0000 </r>
       <r>   18.0830    0.0000 </r>
       <r>   19.6464    0.0000 </r>
       <r>   20.0710    0.0000 </r>
       <r>   21.1173    0.0000 </r>
       <r>   21.9558    0.0000 </r>
       <r>   22.0757    0.0000 </r>
       <r>   22.6188    0.0000 </r>
       <r>   23.3050    0.0000 </r>
       <r>   23.3966    0.0000 </r>
       <r>   24.9063    0.0000 </r>
      </set>
      <set comment="kpoint 12">
       <r>   -9.3061    1.0000 </r>
       <r>   -6.6219    1.0000 </r>
       <r>   -5.2095    1.0000 </r>
       <r>    1.2347    1.0000 </r>
       <r>    1.9485    1.0000 </r>
       <r>    2.1952    1.0000 </r>
       <r>    3.5318    1.0000 </r>
       <r>    3.9825    1.0000 </r>
       <r>    4.1838    1.0000 </r>
       <r>    6.5451    0.0000 </r>
       <r>    6.8336    0.0000 </r>
       <r>    7.3517    0.0000 </r>
       <r>   10.5703    0.0000 </r>
       <r>   10.9636    0.0000 </r>
       <r>   11.7195    0.0000 </r>
       <r>   12.1259    0.0000 </r>
       <r>   12.3040    0.0000 </r>
       <r>   13.1717    0.0000 </r>
       <r>   13.3585    0.0000 </r>
       <r>   14.1809    0.0000 </r>
       <r>   15.3518    0.0000 </r>
       <r>   15.8296    0.0000 </r>
       <r>   18.3374    0.0000 </r>
       <r>   18.4724    0.0000 </r>
       <r>   20.2683    0.0000 </r>
       <r>   20.8394    0.0000 </r>
       <r>   21.6536    0.0000 </r>
       <r>   22.0925    0.0000 </r>
       <r>   22.4885    0.0000 </r>
       <r>   22.9341    0.0000 </r>
       <r>   23.4714    0.0000 </r>
       <r>   23.7778    0.0000 </r>
      </set>
      <set comment="kpoint 13">
       <r>   -9.3051    1.0000 </r>
       <r>   -6.6379    1.0000 </r>
       <r>   -5.1809    1.0000 </r>
       <r>    1.3076    1.0000 </r>
       <r>    1.5592    1.0000 </r>
       <r>    2.1478    1.0000 </r>
       <r>    3.9470    1.0000 </r>
       <r>    4.1246    1.0000 </r>
       <r>    4.4805    1.0000 </r>
       <r>    6.4166    0.0000 </r>
       <r>    6.4491    0.0000 </r>
       <r>    7.1294    0.0000 </r>
       <r>   10.1751    0.0000 </r>
       <r>   11.3316    0.0000 </r>
       <r>   11.9769    0.0000 </r>
       <r>   12.3330    0.0000 </r>
       <r>   12.5392    0.0000 </r>
       <r>   13.1576    0.0000 </r>
       <r>   13.4696    0.0000 </r>
       <r>   13.7878    0.0000 </r>
       <r>   15.2873    0.0000 </r>
       <r>   15.6909    0.0000 </r>
       <r>   18.4308    0.0000 </r>
       <r>   18.7029    0.0000 </r>
       <r>   19.9437    0.0000 </r>
       <r>   20.4804    0.0000 </r>
       <r>   21.5423    0.0000 </r>
       <r>   22.1801    0.0000 </r>
       <r>   22.3589    0.0000 </r>
       <r>   23.1099    0.0000 </r>
       <r>   23.4598    0.0000 </r>
       <r>   23.9696    0.0000 </r>
      </set>
      <set comment="kpoint 14">
       <r>   -8.9954    1.0000 </r>
       <r>   -6.5156    1.0000 </r>
       <r>   -5.4803    1.0000 </r>
       <r>    0.5912    1.0000 </r>
       <r>    1.4058    1.0000 </r>
       <r>    1.7270    1.0000 </r>
       <r>    2.9370    1.0000 </r>
       <r>    3.8146    1.0000 </r>
       <r>    4.1367    1.0000 </r>
       <r>    6.8015    0.0000 </r>
       <r>    7.3217    0.0000 </r>
       <r>    8.0201    0.0000 </r>
       <r>   10.1568    0.0000 </r>
       <r>   11.0285    0.0000 </r>
       <r>   12.2076    0.0000 </r>
       <r>   12.3763    0.0000 </r>
       <r>   13.1195    0.0000 </r>
       <r>   13.8987    0.0000 </r>
       <r>   14.9510    0.0000 </r>
       <r>   15.5844    0.0000 </r>
       <r>   16.5121    0.0000 </r>
       <r>   17.5816    0.0000 </r>
       <r>   17.9922    0.0000 </r>
       <r>   18.9327    0.0000 </r>
       <r>   19.6166    0.0000 </r>
       <r>   19.7810    0.0000 </r>
       <r>   20.5540    0.0000 </r>
       <r>   20.6869    0.0000 </r>
       <r>   21.3247    0.0000 </r>
       <r>   22.2540    0.0000 </r>
       <r>   22.4350    0.0000 </r>
       <r>   22.7123    0.0000 </r>
      </set>
      <set comment="kpoint 15">
       <r>   -8.9878    1.0000 </r>
       <r>   -6.6318    1.0000 </r>
       <r>   -5.2978    1.0000 </r>
       <r>    0.2836    1.0000 </r>
       <r>    0.9113    1.0000 </r>
       <r>    1.6728    1.0000 </r>
       <r>    4.0893    1.0000 </r>
       <r>    4.3488    1.0000 </r>
       <r>    4.5837    1.0000 </r>
       <r>    6.3223    0.0000 </r>
       <r>    6.5964    0.0000 </r>
       <r>    7.1715    0.0000 </r>
       <r>    9.4115    0.0000 </r>
       <r>   11.6592    0.0000 </r>
       <r>   12.6829    0.0000 </r>
       <r>   13.3111    0.0000 </r>
       <r>   13.6128    0.0000 </r>
       <r>   14.1916    0.0000 </r>
       <r>   14.6052    0.0000 </r>
       <r>   15.5356    0.0000 </r>
       <r>   16.4768    0.0000 </r>
       <r>   16.8444    0.0000 </r>
       <r>   17.8719    0.0000 </r>
       <r>   18.8384    0.0000 </r>
       <r>   19.3456    0.0000 </r>
       <r>   19.5465    0.0000 </r>
       <r>   20.0023    0.0000 </r>
       <r>   20.3738    0.0000 </r>
       <r>   20.6095    0.0000 </r>
       <r>   22.9662    0.0000 </r>
       <r>   23.1388    0.0000 </r>
       <r>   23.4535    0.0000 </r>
      </set>
      <set comment="kpoint 16">
       <r>   -8.5748    1.0000 </r>
       <r>   -6.5441    1.0000 </r>
       <r>   -5.7516    1.0000 </r>
       <r>    0.3684    1.0000 </r>
       <r>    0.8287    1.0000 </r>
       <r>    1.5797    1.0000 </r>
       <r>    1.8009    1.0000 </r>
       <r>    3.9496    1.0000 </r>
       <r>    4.0990    1.0000 </r>
       <r>    6.6802    0.0000 </r>
       <r>    7.2015    0.0000 </r>
       <r>    9.2251    0.0000 </r>
       <r>    9.4394    0.0000 </r>
       <r>   12.1063    0.0000 </r>
       <r>   13.2017    0.0000 </r>
       <r>   13.3560    0.0000 </r>
       <r>   14.3241    0.0000 </r>
       <r>   14.9640    0.0000 </r>
       <r>   15.7744    0.0000 </r>
       <r>   16.9169    0.0000 </r>
       <r>   17.0393    0.0000 </r>
       <r>   17.4554    0.0000 </r>
       <r>   17.8325    0.0000 </r>
       <r>   18.8756    0.0000 </r>
       <r>   19.3950    0.0000 </r>
       <r>   19.5472    0.0000 </r>
       <r>   20.1873    0.0000 </r>
       <r>   20.5215    0.0000 </r>
       <r>   20.6904    0.0000 </r>
       <r>   20.7643    0.0000 </r>
       <r>   21.1850    0.0000 </r>
       <r>   21.5468    0.0000 </r>
      </set>
      <set comment="kpoint 17">
       <r>   -8.5551    1.0000 </r>
       <r>   -6.7494    1.0000 </r>
       <r>   -5.4685    1.0000 </r>
       <r>   -0.1394    1.0000 </r>
       <r>    0.4748    1.0000 </r>
       <r>    1.3523    1.0000 </r>
       <r>    3.2882    1.0000 </r>
       <r>    4.1146    1.0000 </r>
       <r>    4.2113    1.0000 </r>
       <r>    6.5423    0.0000 </r>
       <r>    6.8527    0.0000 </r>
       <r>    8.2205    0.0000 </r>
       <r>    9.0011    0.0000 </r>
       <r>   12.5557    0.0000 </r>
       <r>   13.6432    0.0000 </r>
       <r>   14.2384    0.0000 </r>
       <r>   15.2251    0.0000 </r>
       <r>   15.3711    0.0000 </r>
       <r>   15.6726    0.0000 </r>
       <r>   16.6433    0.0000 </r>
       <r>   17.2105    0.0000 </r>
       <r>   17.5242    0.0000 </r>
       <r>   17.5788    0.0000 </r>
       <r>   18.0435    0.0000 </r>
       <r>   18.3550    0.0000 </r>
       <r>   18.7070    0.0000 </r>
       <r>   19.2464    0.0000 </r>
       <r>   19.5860    0.0000 </r>
       <r>   21.0124    0.0000 </r>
       <r>   21.3732    0.0000 </r>
       <r>   21.7790    0.0000 </r>
       <r>   21.9393    0.0000 </r>
      </set>
      <set comment="kpoint 18">
       <r>   -8.3140    1.0000 </r>
       <r>   -6.8020    1.0000 </r>
       <r>   -5.6644    1.0000 </r>
       <r>    0.1365    1.0000 </r>
       <r>    0.3357    1.0000 </r>
       <r>    1.3009    1.0000 </r>
       <r>    2.2049    1.0000 </r>
       <r>    4.0419    1.0000 </r>
       <r>    4.0620    1.0000 </r>
       <r>    6.5941    0.0000 </r>
       <r>    7.0305    0.0000 </r>
       <r>    9.0230    0.0000 </r>
       <r>    9.2366    0.0000 </r>
       <r>   13.1504    0.0000 </r>
       <r>   14.2680    0.0000 </r>
       <r>   14.7532    0.0000 </r>
       <r>   15.0167    0.0000 </r>
       <r>   15.1462    0.0000 </r>
       <r>   16.1753    0.0000 </r>
       <r>   16.5134    0.0000 </r>
       <r>   16.5709    0.0000 </r>
       <r>   17.5291    0.0000 </r>
       <r>   17.7667    0.0000 </r>
       <r>   18.1633    0.0000 </r>
       <r>   18.7909    0.0000 </r>
       <r>   19.2324    0.0000 </r>
       <r>   19.5822    0.0000 </r>
       <r>   20.0778    0.0000 </r>
       <r>   20.2518    0.0000 </r>
       <r>   20.6559    0.0000 </r>
       <r>   21.5077    0.0000 </r>
       <r>   22.0729    0.0000 </r>
      </set>
      <set comment="kpoint 19">
       <r>   -9.0921    1.0000 </r>
       <r>   -6.5825    1.0000 </r>
       <r>   -5.3278    1.0000 </r>
       <r>    0.6890    1.0000 </r>
       <r>    1.0336    1.0000 </r>
       <r>    2.1294    1.0000 </r>
       <r>    3.5623    1.0000 </r>
       <r>    3.7355    1.0000 </r>
       <r>    4.6634    1.0000 </r>
       <r>    6.5245    0.0000 </r>
       <r>    7.0808    0.0000 </r>
       <r>    7.3267    0.0000 </r>
       <r>   10.1196    0.0000 </r>
       <r>   10.7752    0.0000 </r>
       <r>   12.4471    0.0000 </r>
       <r>   12.7173    0.0000 </r>
       <r>   12.9772    0.0000 </r>
       <r>   13.7867    0.0000 </r>
       <r>   14.3821    0.0000 </r>
       <r>   15.0414    0.0000 </r>
       <r>   16.3741    0.0000 </r>
       <r>   16.8081    0.0000 </r>
       <r>   17.8575    0.0000 </r>
       <r>   18.9040    0.0000 </r>
       <r>   19.2417    0.0000 </r>
       <r>   19.8865    0.0000 </r>
       <r>   20.8349    0.0000 </r>
       <r>   21.1961    0.0000 </r>
       <r>   22.0723    0.0000 </r>
       <r>   22.3752    0.0000 </r>
       <r>   23.1002    0.0000 </r>
       <r>   23.5518    0.0000 </r>
      </set>
      <set comment="kpoint 20">
       <r>   -8.7181    1.0000 </r>
       <r>   -6.5131    1.0000 </r>
       <r>   -5.6585    1.0000 </r>
       <r>    0.3034    1.0000 </r>
       <r>    0.7782    1.0000 </r>
       <r>    1.8906    1.0000 </r>
       <r>    2.4612    1.0000 </r>
       <r>    3.1704    1.0000 </r>
       <r>    4.5654    1.0000 </r>
       <r>    6.6522    0.0000 </r>
       <r>    7.6075    0.0000 </r>
       <r>    8.5945    0.0000 </r>
       <r>    9.9964    0.0000 </r>
       <r>   10.8915    0.0000 </r>
       <r>   12.8046    0.0000 </r>
       <r>   13.4640    0.0000 </r>
       <r>   13.7870    0.0000 </r>
       <r>   15.1836    0.0000 </r>
       <r>   15.6297    0.0000 </r>
       <r>   16.0490    0.0000 </r>
       <r>   16.8579    0.0000 </r>
       <r>   17.4025    0.0000 </r>
       <r>   18.1643    0.0000 </r>
       <r>   18.8559    0.0000 </r>
       <r>   19.3140    0.0000 </r>
       <r>   19.4424    0.0000 </r>
       <r>   20.1779    0.0000 </r>
       <r>   20.4728    0.0000 </r>
       <r>   20.9962    0.0000 </r>
       <r>   21.4733    0.0000 </r>
       <r>   22.1613    0.0000 </r>
       <r>   22.4489    0.0000 </r>
      </set>
      <set comment="kpoint 21">
       <r>   -8.7094    1.0000 </r>
       <r>   -6.6291    1.0000 </r>
       <r>   -5.4956    1.0000 </r>
       <r>    0.0159    1.0000 </r>
       <r>    0.6464    1.0000 </r>
       <r>    1.6184    1.0000 </r>
       <r>    3.2408    1.0000 </r>
       <r>    3.7608    1.0000 </r>
       <r>    4.2110    1.0000 </r>
       <r>    6.8653    0.0000 </r>
       <r>    7.4654    0.0000 </r>
       <r>    7.6532    0.0000 </r>
       <r>    9.6004    0.0000 </r>
       <r>   11.1551    0.0000 </r>
       <r>   13.5700    0.0000 </r>
       <r>   13.9904    0.0000 </r>
       <r>   14.2655    0.0000 </r>
       <r>   14.6396    0.0000 </r>
       <r>   15.5464    0.0000 </r>
       <r>   16.4286    0.0000 </r>
       <r>   16.9646    0.0000 </r>
       <r>   17.4822    0.0000 </r>
       <r>   17.6082    0.0000 </r>
       <r>   18.2784    0.0000 </r>
       <r>   18.8010    0.0000 </r>
       <r>   19.1079    0.0000 </r>
       <r>   20.1315    0.0000 </r>
       <r>   20.4412    0.0000 </r>
       <r>   20.8221    0.0000 </r>
       <r>   21.2444    0.0000 </r>
       <r>   22.3655    0.0000 </r>
       <r>   22.6691    0.0000 </r>
      </set>
      <set comment="kpoint 22">
       <r>   -8.3411    1.0000 </r>
       <r>   -6.6542    1.0000 </r>
       <r>   -5.8187    1.0000 </r>
       <r>    0.1792    1.0000 </r>
       <r>    0.5670    1.0000 </r>
       <r>    1.4721    1.0000 </r>
       <r>    2.0428    1.0000 </r>
       <r>    2.9820    1.0000 </r>
       <r>    4.3593    1.0000 </r>
       <r>    6.7443    0.0000 </r>
       <r>    7.7393    0.0000 </r>
       <r>    9.2843    0.0000 </r>
       <r>    9.6000    0.0000 </r>
       <r>   12.1057    0.0000 </r>
       <r>   13.5634    0.0000 </r>
       <r>   13.9906    0.0000 </r>
       <r>   14.7943    0.0000 </r>
       <r>   15.2405    0.0000 </r>
       <r>   16.0698    0.0000 </r>
       <r>   16.9569    0.0000 </r>
       <r>   17.3114    0.0000 </r>
       <r>   17.7063    0.0000 </r>
       <r>   18.0440    0.0000 </r>
       <r>   18.2007    0.0000 </r>
       <r>   18.5238    0.0000 </r>
       <r>   19.0988    0.0000 </r>
       <r>   19.7107    0.0000 </r>
       <r>   20.3011    0.0000 </r>
       <r>   21.3163    0.0000 </r>
       <r>   21.6074    0.0000 </r>
       <r>   22.0184    0.0000 </r>
       <r>   22.4783    0.0000 </r>
      </set>
      <set comment="kpoint 23">
       <r>   -8.3282    1.0000 </r>
       <r>   -6.7604    1.0000 </r>
       <r>   -5.6847    1.0000 </r>
       <r>   -0.0572    1.0000 </r>
       <r>    0.4499    1.0000 </r>
       <r>    1.3501    1.0000 </r>
       <r>    2.7368    1.0000 </r>
       <r>    3.0430    1.0000 </r>
       <r>    4.1939    1.0000 </r>
       <r>    6.8372    0.0000 </r>
       <r>    7.7218    0.0000 </r>
       <r>    8.6938    0.0000 </r>
       <r>    9.4453    0.0000 </r>
       <r>   12.2656    0.0000 </r>
       <r>   13.7546    0.0000 </r>
       <r>   14.7693    0.0000 </r>
       <r>   15.0970    0.0000 </r>
       <r>   15.4757    0.0000 </r>
       <r>   15.8553    0.0000 </r>
       <r>   16.5875    0.0000 </r>
       <r>   17.0091    0.0000 </r>
       <r>   17.4402    0.0000 </r>
       <r>   17.6732    0.0000 </r>
       <r>   18.3130    0.0000 </r>
       <r>   18.9639    0.0000 </r>
       <r>   19.1987    0.0000 </r>
       <r>   19.7657    0.0000 </r>
       <r>   20.1959    0.0000 </r>
       <r>   20.5183    0.0000 </r>
       <r>   20.9390    0.0000 </r>
       <r>   21.3120    0.0000 </r>
       <r>   22.3909    0.0000 </r>
      </set>
      <set comment="kpoint 24">
       <r>   -8.3544    1.0000 </r>
       <r>   -6.6027    1.0000 </r>
       <r>   -5.8502    1.0000 </r>
       <r>   -0.0048    1.0000 </r>
       <r>    0.6796    1.0000 </r>
       <r>    1.6349    1.0000 </r>
       <r>    2.0877    1.0000 </r>
       <r>    3.0219    1.0000 </r>
       <r>    3.7713    1.0000 </r>
       <r>    7.6073    0.0000 </r>
       <r>    7.9702    0.0000 </r>
       <r>    8.7404    0.0000 </r>
       <r>   10.3814    0.0000 </r>
       <r>   10.8226    0.0000 </r>
       <r>   13.5345    0.0000 </r>
       <r>   14.0442    0.0000 </r>
       <r>   14.7138    0.0000 </r>
       <r>   15.1443    0.0000 </r>
       <r>   16.0339    0.0000 </r>
       <r>   16.7778    0.0000 </r>
       <r>   17.2374    0.0000 </r>
       <r>   17.6252    0.0000 </r>
       <r>   17.7951    0.0000 </r>
       <r>   18.1505    0.0000 </r>
       <r>   19.0064    0.0000 </r>
       <r>   20.0867    0.0000 </r>
       <r>   20.4051    0.0000 </r>
       <r>   20.8131    0.0000 </r>
       <r>   21.0055    0.0000 </r>
       <r>   21.4147    0.0000 </r>
       <r>   21.6585    0.0000 </r>
       <r>   21.8946    0.0000 </r>
      </set>
      <set comment="kpoint 25">
       <r>   -8.1597    1.0000 </r>
       <r>   -6.6403    1.0000 </r>
       <r>   -5.9971    1.0000 </r>
       <r>    0.0830    1.0000 </r>
       <r>    0.5897    1.0000 </r>
       <r>    1.5227    1.0000 </r>
       <r>    1.9874    1.0000 </r>
       <r>    2.6639    1.0000 </r>
       <r>    3.4972    1.0000 </r>
       <r>    7.8413    0.0000 </r>
       <r>    8.4968    0.0000 </r>
       <r>    8.8596    0.0000 </r>
       <r>   10.4022    0.0000 </r>
       <r>   11.7544    0.0000 </r>
       <r>   12.3879    0.0000 </r>
       <r>   14.2778    0.0000 </r>
       <r>   15.0223    0.0000 </r>
       <r>   15.4120    0.0000 </r>
       <r>   15.6617    0.0000 </r>
       <r>   16.7214    0.0000 </r>
       <r>   17.3384    0.0000 </r>
       <r>   18.0207    0.0000 </r>
       <r>   18.3509    0.0000 </r>
       <r>   18.7388    0.0000 </r>
       <r>   19.3120    0.0000 </r>
       <r>   19.7724    0.0000 </r>
       <r>   20.1153    0.0000 </r>
       <r>   20.3669    0.0000 </r>
       <r>   20.9477    0.0000 </r>
       <r>   21.5006    0.0000 </r>
       <r>   21.8501    0.0000 </r>
       <r>   22.4139    0.0000 </r>
      </set>
      <set comment="kpoint 26">
       <r>   -9.2341    1.0000 </r>
       <r>   -7.3673    1.0000 </r>
       <r>   -4.4167    1.0000 </r>
       <r>    1.6465    1.0000 </r>
       <r>    2.1351    1.0000 </r>
       <r>    2.5860    1.0000 </r>
       <r>    3.5953    1.0000 </r>
       <r>    3.6835    1.0000 </r>
       <r>    4.2546    1.0000 </r>
       <r>    6.3610    0.0000 </r>
       <r>    6.4250    0.0000 </r>
       <r>    6.8134    0.0000 </r>
       <r>   10.3070    0.0000 </r>
       <r>   11.3642    0.0000 </r>
       <r>   11.7835    0.0000 </r>
       <r>   12.0489    0.0000 </r>
       <r>   12.6131    0.0000 </r>
       <r>   12.8393    0.0000 </r>
       <r>   13.9550    0.0000 </r>
       <r>   14.2733    0.0000 </r>
       <r>   14.3952    0.0000 </r>
       <r>   15.5177    0.0000 </r>
       <r>   18.0128    0.0000 </r>
       <r>   18.5652    0.0000 </r>
       <r>   19.4475    0.0000 </r>
       <r>   19.9422    0.0000 </r>
       <r>   20.3829    0.0000 </r>
       <r>   20.5401    0.0000 </r>
       <r>   21.0686    0.0000 </r>
       <r>   24.8268    0.0000 </r>
       <r>   24.8909    0.0000 </r>
       <r>   25.8462    0.0000 </r>
      </set>
      <set comment="kpoint 27">
       <r>   -9.1266    1.0000 </r>
       <r>   -7.2989    1.0000 </r>
       <r>   -4.5677    1.0000 </r>
       <r>    1.2632    1.0000 </r>
       <r>    1.9467    1.0000 </r>
       <r>    2.4220    1.0000 </r>
       <r>    3.3328    1.0000 </r>
       <r>    3.7250    1.0000 </r>
       <r>    3.8896    1.0000 </r>
       <r>    6.7262    0.0000 </r>
       <r>    6.8454    0.0000 </r>
       <r>    7.2546    0.0000 </r>
       <r>   10.4122    0.0000 </r>
       <r>   11.3801    0.0000 </r>
       <r>   11.4864    0.0000 </r>
       <r>   12.0042    0.0000 </r>
       <r>   12.4356    0.0000 </r>
       <r>   13.2042    0.0000 </r>
       <r>   14.2127    0.0000 </r>
       <r>   14.7817    0.0000 </r>
       <r>   15.2225    0.0000 </r>
       <r>   16.5685    0.0000 </r>
       <r>   17.0272    0.0000 </r>
       <r>   18.7729    0.0000 </r>
       <r>   19.2930    0.0000 </r>
       <r>   20.1559    0.0000 </r>
       <r>   20.1763    0.0000 </r>
       <r>   21.0706    0.0000 </r>
       <r>   22.4279    0.0000 </r>
       <r>   23.1420    0.0000 </r>
       <r>   23.3031    0.0000 </r>
       <r>   24.0047    0.0000 </r>
      </set>
      <set comment="kpoint 28">
       <r>   -9.1245    1.0000 </r>
       <r>   -7.3101    1.0000 </r>
       <r>   -4.5364    1.0000 </r>
       <r>    1.2917    1.0000 </r>
       <r>    1.5090    1.0000 </r>
       <r>    2.2486    1.0000 </r>
       <r>    3.9360    1.0000 </r>
       <r>    3.9946    1.0000 </r>
       <r>    4.2458    1.0000 </r>
       <r>    6.3295    0.0000 </r>
       <r>    6.3551    0.0000 </r>
       <r>    7.2316    0.0000 </r>
       <r>    9.9988    0.0000 </r>
       <r>   11.5029    0.0000 </r>
       <r>   11.7192    0.0000 </r>
       <r>   12.2882    0.0000 </r>
       <r>   12.9530    0.0000 </r>
       <r>   13.3877    0.0000 </r>
       <r>   14.2093    0.0000 </r>
       <r>   14.5363    0.0000 </r>
       <r>   14.7983    0.0000 </r>
       <r>   16.5514    0.0000 </r>
       <r>   17.2051    0.0000 </r>
       <r>   18.4168    0.0000 </r>
       <r>   18.9408    0.0000 </r>
       <r>   20.1807    0.0000 </r>
       <r>   20.6659    0.0000 </r>
       <r>   21.0436    0.0000 </r>
       <r>   22.3730    0.0000 </r>
       <r>   23.0179    0.0000 </r>
       <r>   23.4161    0.0000 </r>
       <r>   23.7039    0.0000 </r>
      </set>
      <set comment="kpoint 29">
       <r>   -8.8298    1.0000 </r>
       <r>   -7.1086    1.0000 </r>
       <r>   -5.0260    1.0000 </r>
       <r>    0.8703    1.0000 </r>
       <r>    1.4235    1.0000 </r>
       <r>    2.0846    1.0000 </r>
       <r>    2.4616    1.0000 </r>
       <r>    3.3445    1.0000 </r>
       <r>    3.8385    1.0000 </r>
       <r>    7.0994    0.0000 </r>
       <r>    7.6662    0.0000 </r>
       <r>    8.2909    0.0000 </r>
       <r>   10.6047    0.0000 </r>
       <r>   11.1778    0.0000 </r>
       <r>   11.7309    0.0000 </r>
       <r>   12.3235    0.0000 </r>
       <r>   12.8842    0.0000 </r>
       <r>   13.1883    0.0000 </r>
       <r>   14.8489    0.0000 </r>
       <r>   16.3130    0.0000 </r>
       <r>   16.7087    0.0000 </r>
       <r>   17.1923    0.0000 </r>
       <r>   17.9846    0.0000 </r>
       <r>   18.6420    0.0000 </r>
       <r>   18.9998    0.0000 </r>
       <r>   20.2876    0.0000 </r>
       <r>   20.6342    0.0000 </r>
       <r>   20.8679    0.0000 </r>
       <r>   21.2997    0.0000 </r>
       <r>   21.8523    0.0000 </r>
       <r>   22.1024    0.0000 </r>
       <r>   22.7598    0.0000 </r>
      </set>
      <set comment="kpoint 30">
       <r>   -8.8135    1.0000 </r>
       <r>   -7.1944    1.0000 </r>
       <r>   -4.8452    1.0000 </r>
       <r>    0.2859    1.0000 </r>
       <r>    0.8708    1.0000 </r>
       <r>    1.7934    1.0000 </r>
       <r>    3.8788    1.0000 </r>
       <r>    4.0035    1.0000 </r>
       <r>    4.9114    1.0000 </r>
       <r>    6.2582    0.0000 </r>
       <r>    6.8751    0.0000 </r>
       <r>    7.0213    0.0000 </r>
       <r>    9.4621    0.0000 </r>
       <r>   12.2153    0.0000 </r>
       <r>   12.4293    0.0000 </r>
       <r>   12.9463    0.0000 </r>
       <r>   13.6624    0.0000 </r>
       <r>   14.4580    0.0000 </r>
       <r>   14.9447    0.0000 </r>
       <r>   15.3839    0.0000 </r>
       <r>   16.3312    0.0000 </r>
       <r>   16.8434    0.0000 </r>
       <r>   17.3633    0.0000 </r>
       <r>   17.7770    0.0000 </r>
       <r>   18.7876    0.0000 </r>
       <r>   20.0288    0.0000 </r>
       <r>   20.1427    0.0000 </r>
       <r>   21.0531    0.0000 </r>
       <r>   21.6939    0.0000 </r>
       <r>   22.1260    0.0000 </r>
       <r>   22.2373    0.0000 </r>
       <r>   23.0559    0.0000 </r>
      </set>
      <set comment="kpoint 31">
       <r>   -8.4362    1.0000 </r>
       <r>   -6.9202    1.0000 </r>
       <r>   -5.5593    1.0000 </r>
       <r>    0.3500    1.0000 </r>
       <r>    0.8109    1.0000 </r>
       <r>    1.6119    1.0000 </r>
       <r>    2.3673    1.0000 </r>
       <r>    3.3701    1.0000 </r>
       <r>    3.7559    1.0000 </r>
       <r>    7.0770    0.0000 </r>
       <r>    7.7791    0.0000 </r>
       <r>    8.9947    0.0000 </r>
       <r>   10.0450    0.0000 </r>
       <r>   11.7480    0.0000 </r>
       <r>   12.7134    0.0000 </r>
       <r>   13.3549    0.0000 </r>
       <r>   13.9228    0.0000 </r>
       <r>   14.0962    0.0000 </r>
       <r>   15.2220    0.0000 </r>
       <r>   17.3659    0.0000 </r>
       <r>   17.5833    0.0000 </r>
       <r>   17.8361    0.0000 </r>
       <r>   18.0819    0.0000 </r>
       <r>   18.4032    0.0000 </r>
       <r>   18.9369    0.0000 </r>
       <r>   19.5028    0.0000 </r>
       <r>   19.7502    0.0000 </r>
       <r>   20.0531    0.0000 </r>
       <r>   20.7253    0.0000 </r>
       <r>   21.8020    0.0000 </r>
       <r>   22.0033    0.0000 </r>
       <r>   22.4146    0.0000 </r>
      </set>
      <set comment="kpoint 32">
       <r>   -8.3949    1.0000 </r>
       <r>   -7.1178    1.0000 </r>
       <r>   -5.2651    1.0000 </r>
       <r>   -0.3890    1.0000 </r>
       <r>    0.5899    1.0000 </r>
       <r>    1.4855    1.0000 </r>
       <r>    3.6394    1.0000 </r>
       <r>    3.6895    1.0000 </r>
       <r>    4.4314    1.0000 </r>
       <r>    6.6565    0.0000 </r>
       <r>    7.2768    0.0000 </r>
       <r>    7.4813    0.0000 </r>
       <r>    9.3538    0.0000 </r>
       <r>   12.7536    0.0000 </r>
       <r>   13.4557    0.0000 </r>
       <r>   14.0864    0.0000 </r>
       <r>   14.5227    0.0000 </r>
       <r>   14.9949    0.0000 </r>
       <r>   16.0517    0.0000 </r>
       <r>   16.2921    0.0000 </r>
       <r>   16.7071    0.0000 </r>
       <r>   17.4680    0.0000 </r>
       <r>   17.7206    0.0000 </r>
       <r>   17.9065    0.0000 </r>
       <r>   18.6262    0.0000 </r>
       <r>   19.1947    0.0000 </r>
       <r>   19.4422    0.0000 </r>
       <r>   19.7476    0.0000 </r>
       <r>   20.4167    0.0000 </r>
       <r>   20.4939    0.0000 </r>
       <r>   22.5028    0.0000 </r>
       <r>   23.0303    0.0000 </r>
      </set>
      <set comment="kpoint 33">
       <r>   -8.1848    1.0000 </r>
       <r>   -7.0100    1.0000 </r>
       <r>   -5.6285    1.0000 </r>
       <r>   -0.3220    1.0000 </r>
       <r>    0.5779    1.0000 </r>
       <r>    1.4032    1.0000 </r>
       <r>    3.1133    1.0000 </r>
       <r>    3.4563    1.0000 </r>
       <r>    3.7702    1.0000 </r>
       <r>    6.9074    0.0000 </r>
       <r>    7.6528    0.0000 </r>
       <r>    8.4066    0.0000 </r>
       <r>    9.5892    0.0000 </r>
       <r>   12.3578    0.0000 </r>
       <r>   14.2547    0.0000 </r>
       <r>   14.6078    0.0000 </r>
       <r>   15.0327    0.0000 </r>
       <r>   15.1110    0.0000 </r>
       <r>   15.5714    0.0000 </r>
       <r>   15.9777    0.0000 </r>
       <r>   16.5124    0.0000 </r>
       <r>   17.2048    0.0000 </r>
       <r>   17.8567    0.0000 </r>
       <r>   18.5813    0.0000 </r>
       <r>   18.8174    0.0000 </r>
       <r>   19.3125    0.0000 </r>
       <r>   19.8889    0.0000 </r>
       <r>   20.2661    0.0000 </r>
       <r>   20.7287    0.0000 </r>
       <r>   21.1779    0.0000 </r>
       <r>   21.3796    0.0000 </r>
       <r>   21.9295    0.0000 </r>
      </set>
      <set comment="kpoint 34">
       <r>   -8.9186    1.0000 </r>
       <r>   -7.1960    1.0000 </r>
       <r>   -4.8137    1.0000 </r>
       <r>    0.7892    1.0000 </r>
       <r>    1.1520    1.0000 </r>
       <r>    2.0949    1.0000 </r>
       <r>    3.0793    1.0000 </r>
       <r>    3.8548    1.0000 </r>
       <r>    4.4176    1.0000 </r>
       <r>    6.6111    0.0000 </r>
       <r>    7.1971    0.0000 </r>
       <r>    7.5126    0.0000 </r>
       <r>   10.0730    0.0000 </r>
       <r>   11.3749    0.0000 </r>
       <r>   11.9546    0.0000 </r>
       <r>   12.3429    0.0000 </r>
       <r>   13.4350    0.0000 </r>
       <r>   13.7148    0.0000 </r>
       <r>   14.6012    0.0000 </r>
       <r>   15.2838    0.0000 </r>
       <r>   16.2140    0.0000 </r>
       <r>   16.9587    0.0000 </r>
       <r>   17.3048    0.0000 </r>
       <r>   18.1886    0.0000 </r>
       <r>   19.5967    0.0000 </r>
       <r>   19.7259    0.0000 </r>
       <r>   20.6194    0.0000 </r>
       <r>   21.0208    0.0000 </r>
       <r>   21.9174    0.0000 </r>
       <r>   22.5784    0.0000 </r>
       <r>   22.6847    0.0000 </r>
       <r>   23.3437    0.0000 </r>
      </set>
      <set comment="kpoint 35">
       <r>   -8.5644    1.0000 </r>
       <r>   -7.0007    1.0000 </r>
       <r>   -5.3355    1.0000 </r>
       <r>    0.3736    1.0000 </r>
       <r>    0.8631    1.0000 </r>
       <r>    1.8422    1.0000 </r>
       <r>    2.1823    1.0000 </r>
       <r>    3.3480    1.0000 </r>
       <r>    4.5657    1.0000 </r>
       <r>    6.7277    0.0000 </r>
       <r>    7.6357    0.0000 </r>
       <r>    8.7243    0.0000 </r>
       <r>   10.3981    0.0000 </r>
       <r>   11.0270    0.0000 </r>
       <r>   12.3425    0.0000 </r>
       <r>   13.2121    0.0000 </r>
       <r>   13.6483    0.0000 </r>
       <r>   14.5410    0.0000 </r>
       <r>   15.0491    0.0000 </r>
       <r>   16.4587    0.0000 </r>
       <r>   17.0372    0.0000 </r>
       <r>   17.3612    0.0000 </r>
       <r>   18.1710    0.0000 </r>
       <r>   18.6034    0.0000 </r>
       <r>   19.2717    0.0000 </r>
       <r>   19.7294    0.0000 </r>
       <r>   20.4206    0.0000 </r>
       <r>   20.7602    0.0000 </r>
       <r>   21.0341    0.0000 </r>
       <r>   21.5702    0.0000 </r>
       <r>   21.9415    0.0000 </r>
       <r>   22.4411    0.0000 </r>
      </set>
      <set comment="kpoint 36">
       <r>   -8.5460    1.0000 </r>
       <r>   -7.0936    1.0000 </r>
       <r>   -5.1805    1.0000 </r>
       <r>   -0.0981    1.0000 </r>
       <r>    0.7419    1.0000 </r>
       <r>    1.6690    1.0000 </r>
       <r>    2.6445    1.0000 </r>
       <r>    4.2483    1.0000 </r>
       <r>    4.9052    1.0000 </r>
       <r>    6.3301    0.0000 </r>
       <r>    7.0462    0.0000 </r>
       <r>    7.9423    0.0000 </r>
       <r>    9.7864    0.0000 </r>
       <r>   11.6824    0.0000 </r>
       <r>   12.8026    0.0000 </r>
       <r>   13.6619    0.0000 </r>
       <r>   14.5705    0.0000 </r>
       <r>   15.0010    0.0000 </r>
       <r>   15.2405    0.0000 </r>
       <r>   15.8289    0.0000 </r>
       <r>   16.4724    0.0000 </r>
       <r>   17.2567    0.0000 </r>
       <r>   17.9718    0.0000 </r>
       <r>   18.3037    0.0000 </r>
       <r>   18.8951    0.0000 </r>
       <r>   19.4743    0.0000 </r>
       <r>   19.7646    0.0000 </r>
       <r>   20.3902    0.0000 </r>
       <r>   20.6736    0.0000 </r>
       <r>   22.2794    0.0000 </r>
       <r>   22.5631    0.0000 </r>
       <r>   22.9150    0.0000 </r>
      </set>
      <set comment="kpoint 37">
       <r>   -8.2128    1.0000 </r>
       <r>   -6.9207    1.0000 </r>
       <r>   -5.7102    1.0000 </r>
       <r>   -0.0070    1.0000 </r>
       <r>    0.3430    1.0000 </r>
       <r>    1.5717    1.0000 </r>
       <r>    2.4479    1.0000 </r>
       <r>    3.0898    1.0000 </r>
       <r>    4.5803    1.0000 </r>
       <r>    6.6290    0.0000 </r>
       <r>    7.9992    0.0000 </r>
       <r>    8.7678    0.0000 </r>
       <r>    9.9974    0.0000 </r>
       <r>   11.9906    0.0000 </r>
       <r>   13.0778    0.0000 </r>
       <r>   13.8005    0.0000 </r>
       <r>   14.4831    0.0000 </r>
       <r>   15.2562    0.0000 </r>
       <r>   15.9028    0.0000 </r>
       <r>   16.3804    0.0000 </r>
       <r>   16.8474    0.0000 </r>
       <r>   17.3691    0.0000 </r>
       <r>   18.2056    0.0000 </r>
       <r>   18.5800    0.0000 </r>
       <r>   19.2099    0.0000 </r>
       <r>   19.5394    0.0000 </r>
       <r>   19.9594    0.0000 </r>
       <r>   20.3700    0.0000 </r>
       <r>   21.4085    0.0000 </r>
       <r>   21.5589    0.0000 </r>
       <r>   22.0283    0.0000 </r>
       <r>   22.6069    0.0000 </r>
      </set>
      <set comment="kpoint 38">
       <r>   -8.1858    1.0000 </r>
       <r>   -7.0386    1.0000 </r>
       <r>   -5.5612    1.0000 </r>
       <r>   -0.3944    1.0000 </r>
       <r>    0.4299    1.0000 </r>
       <r>    1.5166    1.0000 </r>
       <r>    2.4910    1.0000 </r>
       <r>    3.8010    1.0000 </r>
       <r>    4.5772    1.0000 </r>
       <r>    6.5515    0.0000 </r>
       <r>    7.7592    0.0000 </r>
       <r>    8.1105    0.0000 </r>
       <r>    9.8175    0.0000 </r>
       <r>   12.5116    0.0000 </r>
       <r>   13.1188    0.0000 </r>
       <r>   14.4560    0.0000 </r>
       <r>   14.8139    0.0000 </r>
       <r>   15.0964    0.0000 </r>
       <r>   16.0084    0.0000 </r>
       <r>   16.6743    0.0000 </r>
       <r>   16.7797    0.0000 </r>
       <r>   17.4197    0.0000 </r>
       <r>   17.8694    0.0000 </r>
       <r>   18.0217    0.0000 </r>
       <r>   18.6150    0.0000 </r>
       <r>   19.3969    0.0000 </r>
       <r>   19.8020    0.0000 </r>
       <r>   20.5427    0.0000 </r>
       <r>   21.0215    0.0000 </r>
       <r>   21.3141    0.0000 </r>
       <r>   21.8489    0.0000 </r>
       <r>   22.0498    0.0000 </r>
      </set>
      <set comment="kpoint 39">
       <r>   -8.2139    1.0000 </r>
       <r>   -6.9541    1.0000 </r>
       <r>   -5.6387    1.0000 </r>
       <r>   -0.1995    1.0000 </r>
       <r>    0.4968    1.0000 </r>
       <r>    1.2931    1.0000 </r>
       <r>    2.2325    1.0000 </r>
       <r>    3.7653    1.0000 </r>
       <r>    4.6396    1.0000 </r>
       <r>    6.8290    0.0000 </r>
       <r>    7.5864    0.0000 </r>
       <r>    8.6887    0.0000 </r>
       <r>   10.5700    0.0000 </r>
       <r>   11.0732    0.0000 </r>
       <r>   13.2480    0.0000 </r>
       <r>   13.7195    0.0000 </r>
       <r>   14.7156    0.0000 </r>
       <r>   15.0182    0.0000 </r>
       <r>   15.8348    0.0000 </r>
       <r>   16.2243    0.0000 </r>
       <r>   16.9324    0.0000 </r>
       <r>   17.3441    0.0000 </r>
       <r>   17.8301    0.0000 </r>
       <r>   19.0518    0.0000 </r>
       <r>   19.2433    0.0000 </r>
       <r>   20.1211    0.0000 </r>
       <r>   20.3517    0.0000 </r>
       <r>   20.9172    0.0000 </r>
       <r>   21.0866    0.0000 </r>
       <r>   21.8214    0.0000 </r>
       <r>   22.3044    0.0000 </r>
       <r>   22.7253    0.0000 </r>
      </set>
      <set comment="kpoint 40">
       <r>   -8.0310    1.0000 </r>
       <r>   -6.9267    1.0000 </r>
       <r>   -5.8258    1.0000 </r>
       <r>   -0.1953    1.0000 </r>
       <r>    0.2072    1.0000 </r>
       <r>    1.0091    1.0000 </r>
       <r>    2.5331    1.0000 </r>
       <r>    3.5817    1.0000 </r>
       <r>    4.3752    1.0000 </r>
       <r>    7.1358    0.0000 </r>
       <r>    8.0948    0.0000 </r>
       <r>    8.3825    0.0000 </r>
       <r>   10.6051    0.0000 </r>
       <r>   11.9066    0.0000 </r>
       <r>   12.4988    0.0000 </r>
       <r>   13.9036    0.0000 </r>
       <r>   14.7674    0.0000 </r>
       <r>   15.2248    0.0000 </r>
       <r>   15.7247    0.0000 </r>
       <r>   16.3764    0.0000 </r>
       <r>   16.6535    0.0000 </r>
       <r>   18.1367    0.0000 </r>
       <r>   18.8119    0.0000 </r>
       <r>   18.9292    0.0000 </r>
       <r>   19.3944    0.0000 </r>
       <r>   20.0306    0.0000 </r>
       <r>   20.4381    0.0000 </r>
       <r>   20.7760    0.0000 </r>
       <r>   21.3166    0.0000 </r>
       <r>   21.8205    0.0000 </r>
       <r>   22.2108    0.0000 </r>
       <r>   22.5838    0.0000 </r>
      </set>
      <set comment="kpoint 41">
       <r>   -8.9318    1.0000 </r>
       <r>   -7.9894    1.0000 </r>
       <r>   -3.8720    1.0000 </r>
       <r>    1.2899    1.0000 </r>
       <r>    2.2713    1.0000 </r>
       <r>    2.5278    1.0000 </r>
       <r>    3.7092    1.0000 </r>
       <r>    3.9071    1.0000 </r>
       <r>    4.2002    1.0000 </r>
       <r>    6.1737    0.0000 </r>
       <r>    6.2344    0.0000 </r>
       <r>    6.4252    0.0000 </r>
       <r>   10.0328    0.0000 </r>
       <r>   11.1311    0.0000 </r>
       <r>   11.3647    0.0000 </r>
       <r>   12.9964    0.0000 </r>
       <r>   13.2806    0.0000 </r>
       <r>   13.6267    0.0000 </r>
       <r>   13.6335    0.0000 </r>
       <r>   15.3794    0.0000 </r>
       <r>   15.4573    0.0000 </r>
       <r>   16.4229    0.0000 </r>
       <r>   16.7731    0.0000 </r>
       <r>   17.3852    0.0000 </r>
       <r>   18.0340    0.0000 </r>
       <r>   18.9324    0.0000 </r>
       <r>   19.0361    0.0000 </r>
       <r>   19.5627    0.0000 </r>
       <r>   21.9039    0.0000 </r>
       <r>   25.6494    0.0000 </r>
       <r>   25.9461    0.0000 </r>
       <r>   26.3440    0.0000 </r>
      </set>
      <set comment="kpoint 42">
       <r>   -8.8303    1.0000 </r>
       <r>   -7.9036    1.0000 </r>
       <r>   -4.0949    1.0000 </r>
       <r>    1.1770    1.0000 </r>
       <r>    2.0901    1.0000 </r>
       <r>    2.4569    1.0000 </r>
       <r>    3.2320    1.0000 </r>
       <r>    3.4800    1.0000 </r>
       <r>    3.8430    1.0000 </r>
       <r>    6.6425    0.0000 </r>
       <r>    6.9585    0.0000 </r>
       <r>    7.0244    0.0000 </r>
       <r>   10.3002    0.0000 </r>
       <r>   11.0880    0.0000 </r>
       <r>   11.4959    0.0000 </r>
       <r>   12.3055    0.0000 </r>
       <r>   13.1140    0.0000 </r>
       <r>   13.9856    0.0000 </r>
       <r>   14.3950    0.0000 </r>
       <r>   14.5941    0.0000 </r>
       <r>   16.0689    0.0000 </r>
       <r>   16.5290    0.0000 </r>
       <r>   17.1915    0.0000 </r>
       <r>   17.7115    0.0000 </r>
       <r>   18.1601    0.0000 </r>
       <r>   18.8608    0.0000 </r>
       <r>   19.6050    0.0000 </r>
       <r>   20.9889    0.0000 </r>
       <r>   22.0405    0.0000 </r>
       <r>   23.4717    0.0000 </r>
       <r>   23.5548    0.0000 </r>
       <r>   24.3546    0.0000 </r>
      </set>
      <set comment="kpoint 43">
       <r>   -8.8269    1.0000 </r>
       <r>   -7.9114    1.0000 </r>
       <r>   -4.0721    1.0000 </r>
       <r>    1.1047    1.0000 </r>
       <r>    1.8130    1.0000 </r>
       <r>    2.3397    1.0000 </r>
       <r>    3.5302    1.0000 </r>
       <r>    3.8624    1.0000 </r>
       <r>    4.0604    1.0000 </r>
       <r>    6.3122    0.0000 </r>
       <r>    6.4555    0.0000 </r>
       <r>    7.2805    0.0000 </r>
       <r>   10.0426    0.0000 </r>
       <r>   11.0349    0.0000 </r>
       <r>   11.7680    0.0000 </r>
       <r>   12.4557    0.0000 </r>
       <r>   13.4272    0.0000 </r>
       <r>   14.0880    0.0000 </r>
       <r>   14.2178    0.0000 </r>
       <r>   15.2321    0.0000 </r>
       <r>   15.4892    0.0000 </r>
       <r>   16.2814    0.0000 </r>
       <r>   16.8707    0.0000 </r>
       <r>   17.4582    0.0000 </r>
       <r>   18.2802    0.0000 </r>
       <r>   19.2697    0.0000 </r>
       <r>   19.6484    0.0000 </r>
       <r>   20.9095    0.0000 </r>
       <r>   22.0543    0.0000 </r>
       <r>   23.3032    0.0000 </r>
       <r>   23.7783    0.0000 </r>
       <r>   24.5999    0.0000 </r>
      </set>
      <set comment="kpoint 44">
       <r>   -8.5573    1.0000 </r>
       <r>   -7.6590    1.0000 </r>
       <r>   -4.6881    1.0000 </r>
       <r>    0.7736    1.0000 </r>
       <r>    1.6474    1.0000 </r>
       <r>    1.9883    1.0000 </r>
       <r>    2.7386    1.0000 </r>
       <r>    3.0495    1.0000 </r>
       <r>    3.6298    1.0000 </r>
       <r>    7.1922    0.0000 </r>
       <r>    7.7121    0.0000 </r>
       <r>    8.2910    0.0000 </r>
       <r>   10.7966    0.0000 </r>
       <r>   11.1669    0.0000 </r>
       <r>   11.7017    0.0000 </r>
       <r>   12.3019    0.0000 </r>
       <r>   13.0947    0.0000 </r>
       <r>   13.6190    0.0000 </r>
       <r>   14.1634    0.0000 </r>
       <r>   16.1956    0.0000 </r>
       <r>   16.5749    0.0000 </r>
       <r>   17.3607    0.0000 </r>
       <r>   17.7395    0.0000 </r>
       <r>   18.0636    0.0000 </r>
       <r>   19.6304    0.0000 </r>
       <r>   19.9019    0.0000 </r>
       <r>   20.2514    0.0000 </r>
       <r>   20.8891    0.0000 </r>
       <r>   21.2714    0.0000 </r>
       <r>   21.5827    0.0000 </r>
       <r>   22.6561    0.0000 </r>
       <r>   22.8083    0.0000 </r>
      </set>
      <set comment="kpoint 45">
       <r>   -8.5305    1.0000 </r>
       <r>   -7.7191    1.0000 </r>
       <r>   -4.5710    1.0000 </r>
       <r>    0.3257    1.0000 </r>
       <r>    1.1224    1.0000 </r>
       <r>    1.9364    1.0000 </r>
       <r>    3.4679    1.0000 </r>
       <r>    3.5743    1.0000 </r>
       <r>    4.4513    1.0000 </r>
       <r>    6.6360    0.0000 </r>
       <r>    7.2430    0.0000 </r>
       <r>    7.3779    0.0000 </r>
       <r>    9.8087    0.0000 </r>
       <r>   11.7516    0.0000 </r>
       <r>   12.3161    0.0000 </r>
       <r>   13.1696    0.0000 </r>
       <r>   13.6459    0.0000 </r>
       <r>   14.4639    0.0000 </r>
       <r>   14.5073    0.0000 </r>
       <r>   15.7401    0.0000 </r>
       <r>   16.0843    0.0000 </r>
       <r>   16.1813    0.0000 </r>
       <r>   17.1360    0.0000 </r>
       <r>   17.8765    0.0000 </r>
       <r>   19.8469    0.0000 </r>
       <r>   19.9130    0.0000 </r>
       <r>   20.2478    0.0000 </r>
       <r>   20.8483    0.0000 </r>
       <r>   21.3745    0.0000 </r>
       <r>   21.9484    0.0000 </r>
       <r>   22.2507    0.0000 </r>
       <r>   23.1021    0.0000 </r>
      </set>
      <set comment="kpoint 46">
       <r>   -8.2120    1.0000 </r>
       <r>   -7.3492    1.0000 </r>
       <r>   -5.3576    1.0000 </r>
       <r>   -0.1160    1.0000 </r>
       <r>    1.2480    1.0000 </r>
       <r>    1.6180    1.0000 </r>
       <r>    2.8797    1.0000 </r>
       <r>    3.0302    1.0000 </r>
       <r>    3.6643    1.0000 </r>
       <r>    7.4457    0.0000 </r>
       <r>    8.0455    0.0000 </r>
       <r>    8.3546    0.0000 </r>
       <r>   10.5179    0.0000 </r>
       <r>   11.2856    0.0000 </r>
       <r>   12.8682    0.0000 </r>
       <r>   13.3565    0.0000 </r>
       <r>   13.7196    0.0000 </r>
       <r>   13.9385    0.0000 </r>
       <r>   15.2011    0.0000 </r>
       <r>   16.5980    0.0000 </r>
       <r>   16.8832    0.0000 </r>
       <r>   17.9454    0.0000 </r>
       <r>   18.0710    0.0000 </r>
       <r>   18.6086    0.0000 </r>
       <r>   19.0746    0.0000 </r>
       <r>   19.2537    0.0000 </r>
       <r>   19.6793    0.0000 </r>
       <r>   20.0997    0.0000 </r>
       <r>   21.4815    0.0000 </r>
       <r>   22.1224    0.0000 </r>
       <r>   22.3639    0.0000 </r>
       <r>   22.9988    0.0000 </r>
      </set>
      <set comment="kpoint 47">
       <r>   -8.1474    1.0000 </r>
       <r>   -7.4944    1.0000 </r>
       <r>   -5.1793    1.0000 </r>
       <r>   -0.5130    1.0000 </r>
       <r>    0.9450    1.0000 </r>
       <r>    1.6383    1.0000 </r>
       <r>    3.0982    1.0000 </r>
       <r>    3.3188    1.0000 </r>
       <r>    5.0811    1.0000 </r>
       <r>    6.4707    0.0000 </r>
       <r>    7.2534    0.0000 </r>
       <r>    7.9120    0.0000 </r>
       <r>    9.9094    0.0000 </r>
       <r>   12.0055    0.0000 </r>
       <r>   13.7281    0.0000 </r>
       <r>   13.9058    0.0000 </r>
       <r>   14.1250    0.0000 </r>
       <r>   14.9329    0.0000 </r>
       <r>   15.3683    0.0000 </r>
       <r>   15.5101    0.0000 </r>
       <r>   16.1848    0.0000 </r>
       <r>   17.7839    0.0000 </r>
       <r>   17.9271    0.0000 </r>
       <r>   18.3340    0.0000 </r>
       <r>   18.9653    0.0000 </r>
       <r>   19.0632    0.0000 </r>
       <r>   19.5235    0.0000 </r>
       <r>   19.9624    0.0000 </r>
       <r>   20.8192    0.0000 </r>
       <r>   21.4865    0.0000 </r>
       <r>   22.8045    0.0000 </r>
       <r>   23.5861    0.0000 </r>
      </set>
      <set comment="kpoint 48">
       <r>   -7.9937    1.0000 </r>
       <r>   -7.2763    1.0000 </r>
       <r>   -5.5912    1.0000 </r>
       <r>   -0.6776    1.0000 </r>
       <r>    1.0006    1.0000 </r>
       <r>    1.5207    1.0000 </r>
       <r>    2.8948    1.0000 </r>
       <r>    3.1789    1.0000 </r>
       <r>    4.3905    1.0000 </r>
       <r>    7.1314    0.0000 </r>
       <r>    7.5105    0.0000 </r>
       <r>    8.2147    0.0000 </r>
       <r>   10.2013    0.0000 </r>
       <r>   11.5180    0.0000 </r>
       <r>   14.2335    0.0000 </r>
       <r>   14.4194    0.0000 </r>
       <r>   14.7530    0.0000 </r>
       <r>   15.2002    0.0000 </r>
       <r>   15.4981    0.0000 </r>
       <r>   15.9369    0.0000 </r>
       <r>   16.3350    0.0000 </r>
       <r>   16.7198    0.0000 </r>
       <r>   17.2578    0.0000 </r>
       <r>   17.9964    0.0000 </r>
       <r>   18.6299    0.0000 </r>
       <r>   19.7687    0.0000 </r>
       <r>   20.3503    0.0000 </r>
       <r>   21.2441    0.0000 </r>
       <r>   21.4735    0.0000 </r>
       <r>   21.8675    0.0000 </r>
       <r>   22.3233    0.0000 </r>
       <r>   22.6675    0.0000 </r>
      </set>
      <set comment="kpoint 49">
       <r>   -8.6338    1.0000 </r>
       <r>   -7.7571    1.0000 </r>
       <r>   -4.4598    1.0000 </r>
       <r>    0.8127    1.0000 </r>
       <r>    1.3801    1.0000 </r>
       <r>    2.0770    1.0000 </r>
       <r>    2.7890    1.0000 </r>
       <r>    3.7954    1.0000 </r>
       <r>    4.1455    1.0000 </r>
       <r>    6.4597    0.0000 </r>
       <r>    7.5057    0.0000 </r>
       <r>    7.7372    0.0000 </r>
       <r>   10.2636    0.0000 </r>
       <r>   11.1947    0.0000 </r>
       <r>   11.9987    0.0000 </r>
       <r>   12.4571    0.0000 </r>
       <r>   13.1936    0.0000 </r>
       <r>   14.1503    0.0000 </r>
       <r>   14.6438    0.0000 </r>
       <r>   15.4410    0.0000 </r>
       <r>   15.9358    0.0000 </r>
       <r>   16.4949    0.0000 </r>
       <r>   17.4622    0.0000 </r>
       <r>   18.3095    0.0000 </r>
       <r>   18.7974    0.0000 </r>
       <r>   19.5163    0.0000 </r>
       <r>   20.4492    0.0000 </r>
       <r>   21.1907    0.0000 </r>
       <r>   21.7520    0.0000 </r>
       <r>   22.3771    0.0000 </r>
       <r>   22.5067    0.0000 </r>
       <r>   23.6453    0.0000 </r>
      </set>
      <set comment="kpoint 50">
       <r>   -8.3141    1.0000 </r>
       <r>   -7.4803    1.0000 </r>
       <r>   -5.0918    1.0000 </r>
       <r>    0.2964    1.0000 </r>
       <r>    0.8387    1.0000 </r>
       <r>    1.4733    1.0000 </r>
       <r>    2.7698    1.0000 </r>
       <r>    3.7285    1.0000 </r>
       <r>    4.0666    1.0000 </r>
       <r>    7.0174    0.0000 </r>
       <r>    7.6442    0.0000 </r>
       <r>    8.4391    0.0000 </r>
       <r>   10.6774    0.0000 </r>
       <r>   11.3697    0.0000 </r>
       <r>   11.7349    0.0000 </r>
       <r>   13.2895    0.0000 </r>
       <r>   13.8874    0.0000 </r>
       <r>   14.2604    0.0000 </r>
       <r>   14.7917    0.0000 </r>
       <r>   15.6221    0.0000 </r>
       <r>   17.3139    0.0000 </r>
       <r>   17.7224    0.0000 </r>
       <r>   18.1128    0.0000 </r>
       <r>   18.4307    0.0000 </r>
       <r>   18.8972    0.0000 </r>
       <r>   19.6739    0.0000 </r>
       <r>   19.8746    0.0000 </r>
       <r>   20.8371    0.0000 </r>
       <r>   21.6422    0.0000 </r>
       <r>   21.9674    0.0000 </r>
       <r>   22.3274    0.0000 </r>
       <r>   22.9197    0.0000 </r>
      </set>
      <set comment="kpoint 51">
       <r>   -8.2842    1.0000 </r>
       <r>   -7.5467    1.0000 </r>
       <r>   -4.9967    1.0000 </r>
       <r>   -0.0928    1.0000 </r>
       <r>    0.8430    1.0000 </r>
       <r>    1.5830    1.0000 </r>
       <r>    2.6218    1.0000 </r>
       <r>    4.3069    1.0000 </r>
       <r>    4.7986    1.0000 </r>
       <r>    6.3740    0.0000 </r>
       <r>    7.1033    0.0000 </r>
       <r>    8.1284    0.0000 </r>
       <r>   10.1135    0.0000 </r>
       <r>   11.9721    0.0000 </r>
       <r>   12.4676    0.0000 </r>
       <r>   13.0283    0.0000 </r>
       <r>   14.0980    0.0000 </r>
       <r>   14.8267    0.0000 </r>
       <r>   15.1703    0.0000 </r>
       <r>   16.0673    0.0000 </r>
       <r>   16.4592    0.0000 </r>
       <r>   16.9974    0.0000 </r>
       <r>   17.7869    0.0000 </r>
       <r>   18.0228    0.0000 </r>
       <r>   18.8702    0.0000 </r>
       <r>   19.6411    0.0000 </r>
       <r>   20.4712    0.0000 </r>
       <r>   20.7606    0.0000 </r>
       <r>   21.3820    0.0000 </r>
       <r>   21.7785    0.0000 </r>
       <r>   22.0807    0.0000 </r>
       <r>   23.4235    0.0000 </r>
      </set>
      <set comment="kpoint 52">
       <r>   -8.0116    1.0000 </r>
       <r>   -7.2541    1.0000 </r>
       <r>   -5.5878    1.0000 </r>
       <r>   -0.3957    1.0000 </r>
       <r>    0.5080    1.0000 </r>
       <r>    1.2504    1.0000 </r>
       <r>    2.9743    1.0000 </r>
       <r>    3.8164    1.0000 </r>
       <r>    4.2728    1.0000 </r>
       <r>    7.0428    0.0000 </r>
       <r>    7.7462    0.0000 </r>
       <r>    8.1270    0.0000 </r>
       <r>   10.4505    0.0000 </r>
       <r>   11.5553    0.0000 </r>
       <r>   12.8854    0.0000 </r>
       <r>   14.1630    0.0000 </r>
       <r>   14.5669    0.0000 </r>
       <r>   14.9917    0.0000 </r>
       <r>   15.5286    0.0000 </r>
       <r>   15.9097    0.0000 </r>
       <r>   16.4278    0.0000 </r>
       <r>   17.0127    0.0000 </r>
       <r>   18.3722    0.0000 </r>
       <r>   18.7346    0.0000 </r>
       <r>   19.2915    0.0000 </r>
       <r>   19.8424    0.0000 </r>
       <r>   20.4406    0.0000 </r>
       <r>   20.6675    0.0000 </r>
       <r>   21.2710    0.0000 </r>
       <r>   21.4018    0.0000 </r>
       <r>   22.0399    0.0000 </r>
       <r>   22.8439    0.0000 </r>
      </set>
      <set comment="kpoint 53">
       <r>   -7.9712    1.0000 </r>
       <r>   -7.3443    1.0000 </r>
       <r>   -5.4966    1.0000 </r>
       <r>   -0.6080    1.0000 </r>
       <r>    0.5539    1.0000 </r>
       <r>    1.2861    1.0000 </r>
       <r>    2.7405    1.0000 </r>
       <r>    4.1917    1.0000 </r>
       <r>    4.9338    1.0000 </r>
       <r>    6.5249    0.0000 </r>
       <r>    7.1127    0.0000 </r>
       <r>    8.2434    0.0000 </r>
       <r>   10.1904    0.0000 </r>
       <r>   12.0581    0.0000 </r>
       <r>   13.3722    0.0000 </r>
       <r>   13.8546    0.0000 </r>
       <r>   14.3224    0.0000 </r>
       <r>   15.0269    0.0000 </r>
       <r>   16.1324    0.0000 </r>
       <r>   16.3575    0.0000 </r>
       <r>   16.7690    0.0000 </r>
       <r>   16.8667    0.0000 </r>
       <r>   17.6234    0.0000 </r>
       <r>   18.1384    0.0000 </r>
       <r>   19.1483    0.0000 </r>
       <r>   19.4807    0.0000 </r>
       <r>   20.1686    0.0000 </r>
       <r>   20.4585    0.0000 </r>
       <r>   21.3469    0.0000 </r>
       <r>   22.2226    0.0000 </r>
       <r>   22.6613    0.0000 </r>
       <r>   23.1497    0.0000 </r>
      </set>
      <set comment="kpoint 54">
       <r>   -7.9911    1.0000 </r>
       <r>   -7.3206    1.0000 </r>
       <r>   -5.4923    1.0000 </r>
       <r>   -0.2418    1.0000 </r>
       <r>    0.2434    1.0000 </r>
       <r>    0.7850    1.0000 </r>
       <r>    3.0876    1.0000 </r>
       <r>    4.4427    1.0000 </r>
       <r>    4.9569    1.0000 </r>
       <r>    6.4210    0.0000 </r>
       <r>    7.2045    0.0000 </r>
       <r>    8.2298    0.0000 </r>
       <r>   10.7739    0.0000 </r>
       <r>   11.6509    0.0000 </r>
       <r>   12.4169    0.0000 </r>
       <r>   13.3867    0.0000 </r>
       <r>   14.6632    0.0000 </r>
       <r>   15.1901    0.0000 </r>
       <r>   15.9230    0.0000 </r>
       <r>   16.0350    0.0000 </r>
       <r>   16.4575    0.0000 </r>
       <r>   17.0692    0.0000 </r>
       <r>   18.2206    0.0000 </r>
       <r>   18.8564    0.0000 </r>
       <r>   19.7740    0.0000 </r>
       <r>   20.0014    0.0000 </r>
       <r>   20.6781    0.0000 </r>
       <r>   20.7899    0.0000 </r>
       <r>   21.2509    0.0000 </r>
       <r>   21.7244    0.0000 </r>
       <r>   22.2407    0.0000 </r>
       <r>   22.6960    0.0000 </r>
      </set>
      <set comment="kpoint 55">
       <r>   -7.8292    1.0000 </r>
       <r>   -7.2362    1.0000 </r>
       <r>   -5.7028    1.0000 </r>
       <r>   -0.3613    1.0000 </r>
       <r>   -0.0031    1.0000 </r>
       <r>    0.4825    1.0000 </r>
       <r>    3.4433    1.0000 </r>
       <r>    4.4937    1.0000 </r>
       <r>    5.0195    1.0000 </r>
       <r>    6.4547    0.0000 </r>
       <r>    7.3413    0.0000 </r>
       <r>    7.8323    0.0000 </r>
       <r>   10.9887    0.0000 </r>
       <r>   12.1024    0.0000 </r>
       <r>   12.8042    0.0000 </r>
       <r>   13.1744    0.0000 </r>
       <r>   14.0496    0.0000 </r>
       <r>   14.7368    0.0000 </r>
       <r>   15.6899    0.0000 </r>
       <r>   16.9567    0.0000 </r>
       <r>   17.3703    0.0000 </r>
       <r>   18.1451    0.0000 </r>
       <r>   18.2504    0.0000 </r>
       <r>   18.8916    0.0000 </r>
       <r>   19.4438    0.0000 </r>
       <r>   20.1425    0.0000 </r>
       <r>   20.6606    0.0000 </r>
       <r>   20.9256    0.0000 </r>
       <r>   21.2181    0.0000 </r>
       <r>   21.7890    0.0000 </r>
       <r>   22.2106    0.0000 </r>
       <r>   22.9214    0.0000 </r>
      </set>
      <set comment="kpoint 56">
       <r>   -8.5145    1.0000 </r>
       <r>   -8.5145    1.0000 </r>
       <r>   -3.6602    1.0000 </r>
       <r>    1.1401    1.0000 </r>
       <r>    2.4138    1.0000 </r>
       <r>    2.4138    1.0000 </r>
       <r>    3.7569    1.0000 </r>
       <r>    4.0899    1.0000 </r>
       <r>    4.0899    1.0000 </r>
       <r>    6.1609    0.0000 </r>
       <r>    6.1853    0.0000 </r>
       <r>    6.1854    0.0000 </r>
       <r>    9.9347    0.0000 </r>
       <r>   11.1348    0.0000 </r>
       <r>   11.1348    0.0000 </r>
       <r>   13.0486    0.0000 </r>
       <r>   13.7646    0.0000 </r>
       <r>   13.7647    0.0000 </r>
       <r>   14.6010    0.0000 </r>
       <r>   15.3268    0.0000 </r>
       <r>   16.0945    0.0000 </r>
       <r>   16.0945    0.0000 </r>
       <r>   17.1303    0.0000 </r>
       <r>   17.1303    0.0000 </r>
       <r>   17.8651    0.0000 </r>
       <r>   18.1688    0.0000 </r>
       <r>   18.1688    0.0000 </r>
       <r>   18.3358    0.0000 </r>
       <r>   23.9175    0.0000 </r>
       <r>   23.9176    0.0000 </r>
       <r>   26.5212    0.0000 </r>
       <r>   26.5262    0.0000 </r>
      </set>
      <set comment="kpoint 57">
       <r>   -8.4310    1.0000 </r>
       <r>   -8.4085    1.0000 </r>
       <r>   -3.9078    1.0000 </r>
       <r>    1.0702    1.0000 </r>
       <r>    2.1681    1.0000 </r>
       <r>    2.3110    1.0000 </r>
       <r>    3.2356    1.0000 </r>
       <r>    3.6304    1.0000 </r>
       <r>    3.9093    1.0000 </r>
       <r>    6.4381    0.0000 </r>
       <r>    6.6959    0.0000 </r>
       <r>    7.1822    0.0000 </r>
       <r>   10.2144    0.0000 </r>
       <r>   10.8217    0.0000 </r>
       <r>   11.5399    0.0000 </r>
       <r>   12.9282    0.0000 </r>
       <r>   13.5003    0.0000 </r>
       <r>   14.0781    0.0000 </r>
       <r>   14.1791    0.0000 </r>
       <r>   15.4770    0.0000 </r>
       <r>   15.8331    0.0000 </r>
       <r>   16.2372    0.0000 </r>
       <r>   16.9607    0.0000 </r>
       <r>   17.5152    0.0000 </r>
       <r>   17.8979    0.0000 </r>
       <r>   18.7659    0.0000 </r>
       <r>   19.4594    0.0000 </r>
       <r>   19.6467    0.0000 </r>
       <r>   23.4387    0.0000 </r>
       <r>   23.5206    0.0000 </r>
       <r>   23.8885    0.0000 </r>
       <r>   24.3737    0.0000 </r>
      </set>
      <set comment="kpoint 58">
       <r>   -8.2136    1.0000 </r>
       <r>   -8.1081    1.0000 </r>
       <r>   -4.5214    1.0000 </r>
       <r>    0.4918    1.0000 </r>
       <r>    1.5408    1.0000 </r>
       <r>    1.9537    1.0000 </r>
       <r>    3.0786    1.0000 </r>
       <r>    3.2253    1.0000 </r>
       <r>    3.8347    1.0000 </r>
       <r>    6.9814    0.0000 </r>
       <r>    7.5538    0.0000 </r>
       <r>    7.9466    0.0000 </r>
       <r>   10.3565    0.0000 </r>
       <r>   11.2729    0.0000 </r>
       <r>   12.1158    0.0000 </r>
       <r>   12.7082    0.0000 </r>
       <r>   13.3567    0.0000 </r>
       <r>   14.1929    0.0000 </r>
       <r>   14.6655    0.0000 </r>
       <r>   15.5177    0.0000 </r>
       <r>   15.6566    0.0000 </r>
       <r>   16.4852    0.0000 </r>
       <r>   18.1966    0.0000 </r>
       <r>   18.6786    0.0000 </r>
       <r>   19.2586    0.0000 </r>
       <r>   19.4056    0.0000 </r>
       <r>   20.5612    0.0000 </r>
       <r>   20.9386    0.0000 </r>
       <r>   21.3233    0.0000 </r>
       <r>   21.4627    0.0000 </r>
       <r>   21.9728    0.0000 </r>
       <r>   22.5167    0.0000 </r>
      </set>
      <set comment="kpoint 59">
       <r>   -7.9674    1.0000 </r>
       <r>   -7.6939    1.0000 </r>
       <r>   -5.2177    1.0000 </r>
       <r>   -0.4247    1.0000 </r>
       <r>    1.3644    1.0000 </r>
       <r>    1.6103    1.0000 </r>
       <r>    2.7741    1.0000 </r>
       <r>    3.0818    1.0000 </r>
       <r>    4.4768    1.0000 </r>
       <r>    7.0713    0.0000 </r>
       <r>    7.6659    0.0000 </r>
       <r>    8.1585    0.0000 </r>
       <r>   10.4335    0.0000 </r>
       <r>   11.3607    0.0000 </r>
       <r>   13.2417    0.0000 </r>
       <r>   13.4688    0.0000 </r>
       <r>   14.1720    0.0000 </r>
       <r>   14.4048    0.0000 </r>
       <r>   15.2283    0.0000 </r>
       <r>   15.8415    0.0000 </r>
       <r>   15.8905    0.0000 </r>
       <r>   18.0974    0.0000 </r>
       <r>   18.2434    0.0000 </r>
       <r>   18.4360    0.0000 </r>
       <r>   18.8242    0.0000 </r>
       <r>   18.9108    0.0000 </r>
       <r>   20.0794    0.0000 </r>
       <r>   20.4111    0.0000 </r>
       <r>   21.3316    0.0000 </r>
       <r>   21.6348    0.0000 </r>
       <r>   22.7532    0.0000 </r>
       <r>   23.1009    0.0000 </r>
      </set>
      <set comment="kpoint 60">
       <r>   -7.8544    1.0000 </r>
       <r>   -7.4458    1.0000 </r>
       <r>   -5.5753    1.0000 </r>
       <r>   -0.8031    1.0000 </r>
       <r>    1.3829    1.0000 </r>
       <r>    1.4192    1.0000 </r>
       <r>    2.6587    1.0000 </r>
       <r>    3.0100    1.0000 </r>
       <r>    5.0880    1.0000 </r>
       <r>    6.4848    0.0000 </r>
       <r>    7.7301    0.0000 </r>
       <r>    8.3260    0.0000 </r>
       <r>   10.4820    0.0000 </r>
       <r>   11.1958    0.0000 </r>
       <r>   13.9595    0.0000 </r>
       <r>   14.1669    0.0000 </r>
       <r>   15.1677    0.0000 </r>
       <r>   15.3660    0.0000 </r>
       <r>   15.4541    0.0000 </r>
       <r>   15.7187    0.0000 </r>
       <r>   16.4085    0.0000 </r>
       <r>   16.6009    0.0000 </r>
       <r>   16.8056    0.0000 </r>
       <r>   17.5111    0.0000 </r>
       <r>   18.8847    0.0000 </r>
       <r>   19.4336    0.0000 </r>
       <r>   21.3963    0.0000 </r>
       <r>   21.6839    0.0000 </r>
       <r>   21.8417    0.0000 </r>
       <r>   22.4540    0.0000 </r>
       <r>   22.5691    0.0000 </r>
       <r>   23.9510    0.0000 </r>
      </set>
      <set comment="kpoint 61">
       <r>   -8.2736    1.0000 </r>
       <r>   -8.2113    1.0000 </r>
       <r>   -4.3324    1.0000 </r>
       <r>    0.7933    1.0000 </r>
       <r>    1.7120    1.0000 </r>
       <r>    1.7604    1.0000 </r>
       <r>    3.0505    1.0000 </r>
       <r>    3.3093    1.0000 </r>
       <r>    4.2386    1.0000 </r>
       <r>    6.3530    0.0000 </r>
       <r>    7.6595    0.0000 </r>
       <r>    7.8317    0.0000 </r>
       <r>   10.5725    0.0000 </r>
       <r>   10.7241    0.0000 </r>
       <r>   12.2213    0.0000 </r>
       <r>   12.5814    0.0000 </r>
       <r>   13.2053    0.0000 </r>
       <r>   13.9952    0.0000 </r>
       <r>   14.5747    0.0000 </r>
       <r>   15.4870    0.0000 </r>
       <r>   16.2059    0.0000 </r>
       <r>   16.4892    0.0000 </r>
       <r>   17.3278    0.0000 </r>
       <r>   17.6557    0.0000 </r>
       <r>   19.0782    0.0000 </r>
       <r>   19.6953    0.0000 </r>
       <r>   20.6803    0.0000 </r>
       <r>   20.7572    0.0000 </r>
       <r>   21.2204    0.0000 </r>
       <r>   21.6709    0.0000 </r>
       <r>   23.5810    0.0000 </r>
       <r>   23.9114    0.0000 </r>
      </set>
      <set comment="kpoint 62">
       <r>   -8.0215    1.0000 </r>
       <r>   -7.8641    1.0000 </r>
       <r>   -4.9693    1.0000 </r>
       <r>    0.0484    1.0000 </r>
       <r>    1.0229    1.0000 </r>
       <r>    1.2354    1.0000 </r>
       <r>    3.1778    1.0000 </r>
       <r>    3.6909    1.0000 </r>
       <r>    4.3255    1.0000 </r>
       <r>    6.7397    0.0000 </r>
       <r>    7.7652    0.0000 </r>
       <r>    8.0326    0.0000 </r>
       <r>   10.4727    0.0000 </r>
       <r>   11.4996    0.0000 </r>
       <r>   12.2944    0.0000 </r>
       <r>   13.2142    0.0000 </r>
       <r>   13.6348    0.0000 </r>
       <r>   14.4376    0.0000 </r>
       <r>   14.9187    0.0000 </r>
       <r>   15.7838    0.0000 </r>
       <r>   16.9103    0.0000 </r>
       <r>   17.5509    0.0000 </r>
       <r>   17.9539    0.0000 </r>
       <r>   18.1150    0.0000 </r>
       <r>   18.5156    0.0000 </r>
       <r>   19.5171    0.0000 </r>
       <r>   20.6150    0.0000 </r>
       <r>   20.9461    0.0000 </r>
       <r>   21.3784    0.0000 </r>
       <r>   22.2186    0.0000 </r>
       <r>   22.6152    0.0000 </r>
       <r>   22.8011    0.0000 </r>
      </set>
      <set comment="kpoint 63">
       <r>   -7.8201    1.0000 </r>
       <r>   -7.5121    1.0000 </r>
       <r>   -5.5074    1.0000 </r>
       <r>   -0.6153    1.0000 </r>
       <r>    0.7854    1.0000 </r>
       <r>    0.9138    1.0000 </r>
       <r>    3.3816    1.0000 </r>
       <r>    3.6427    1.0000 </r>
       <r>    4.9300    1.0000 </r>
       <r>    6.6654    0.0000 </r>
       <r>    7.4402    0.0000 </r>
       <r>    8.0249    0.0000 </r>
       <r>   10.6063    0.0000 </r>
       <r>   11.4128    0.0000 </r>
       <r>   13.2322    0.0000 </r>
       <r>   14.0358    0.0000 </r>
       <r>   14.3947    0.0000 </r>
       <r>   15.0953    0.0000 </r>
       <r>   15.3866    0.0000 </r>
       <r>   15.9743    0.0000 </r>
       <r>   16.3953    0.0000 </r>
       <r>   17.1839    0.0000 </r>
       <r>   17.6719    0.0000 </r>
       <r>   18.6208    0.0000 </r>
       <r>   19.3333    0.0000 </r>
       <r>   19.7648    0.0000 </r>
       <r>   20.3883    0.0000 </r>
       <r>   20.5732    0.0000 </r>
       <r>   21.3574    0.0000 </r>
       <r>   21.9461    0.0000 </r>
       <r>   22.6610    0.0000 </r>
       <r>   23.3368    0.0000 </r>
      </set>
      <set comment="kpoint 64">
       <r>   -7.7646    1.0000 </r>
       <r>   -7.5975    1.0000 </r>
       <r>   -5.4400    1.0000 </r>
       <r>   -0.2354    1.0000 </r>
       <r>    0.1852    1.0000 </r>
       <r>    0.5490    1.0000 </r>
       <r>    3.8245    1.0000 </r>
       <r>    4.3836    1.0000 </r>
       <r>    4.8262    1.0000 </r>
       <r>    6.4780    0.0000 </r>
       <r>    7.4807    0.0000 </r>
       <r>    7.5354    0.0000 </r>
       <r>   10.9579    0.0000 </r>
       <r>   11.9138    0.0000 </r>
       <r>   12.4693    0.0000 </r>
       <r>   12.6455    0.0000 </r>
       <r>   14.8215    0.0000 </r>
       <r>   14.9534    0.0000 </r>
       <r>   15.9248    0.0000 </r>
       <r>   16.2930    0.0000 </r>
       <r>   16.5591    0.0000 </r>
       <r>   17.0037    0.0000 </r>
       <r>   17.9186    0.0000 </r>
       <r>   18.9184    0.0000 </r>
       <r>   19.5212    0.0000 </r>
       <r>   20.2652    0.0000 </r>
       <r>   20.4532    0.0000 </r>
       <r>   21.2253    0.0000 </r>
       <r>   21.2889    0.0000 </r>
       <r>   21.8066    0.0000 </r>
       <r>   22.1572    0.0000 </r>
       <r>   22.5625    0.0000 </r>
      </set>
      <set comment="kpoint 65">
       <r>   -7.6296    1.0000 </r>
       <r>   -7.4737    1.0000 </r>
       <r>   -5.6582    1.0000 </r>
       <r>   -0.4395    1.0000 </r>
       <r>    0.0955    1.0000 </r>
       <r>    0.1471    1.0000 </r>
       <r>    4.1098    1.0000 </r>
       <r>    4.7205    1.0000 </r>
       <r>    5.2567    1.0000 </r>
       <r>    6.1926    0.0000 </r>
       <r>    7.1047    0.0000 </r>
       <r>    7.3389    0.0000 </r>
       <r>   11.3769    0.0000 </r>
       <r>   11.9277    0.0000 </r>
       <r>   12.9741    0.0000 </r>
       <r>   13.2839    0.0000 </r>
       <r>   13.5169    0.0000 </r>
       <r>   14.1114    0.0000 </r>
       <r>   16.3340    0.0000 </r>
       <r>   16.9000    0.0000 </r>
       <r>   17.6939    0.0000 </r>
       <r>   18.0060    0.0000 </r>
       <r>   18.3929    0.0000 </r>
       <r>   18.7264    0.0000 </r>
       <r>   19.6292    0.0000 </r>
       <r>   19.8729    0.0000 </r>
       <r>   20.5026    0.0000 </r>
       <r>   20.6237    0.0000 </r>
       <r>   21.3492    0.0000 </r>
       <r>   22.0004    0.0000 </r>
       <r>   22.1595    0.0000 </r>
       <r>   22.7536    0.0000 </r>
      </set>
     </set>
    </set>
   </array>
  </eigenvalues>
  <separator name="orbital magnetization" >
   <v name="MAGDIPOLOUT">      0.00000000      0.00000000      0.00000000</v>
  </separator>
  <dos>
   <i name="efermi">      5.50397197 </i>
   <total>
    <array>
     <dimension dim="1">gridpoints</dimension>
     <dimension dim="2">spin</dimension>
     <field>energy</field>
     <field>total</field>
     <field>integrated</field>
     <set>
      <set comment="spin 1">
       <r>   -11.2787     0.0000     0.0000 </r>
       <r>   -11.1467     0.0000     0.0000 </r>
       <r>   -11.0147     0.0000     0.0000 </r>
       <r>   -10.8826     0.0000     0.0000 </r>
       <r>   -10.7506     0.0000     0.0000 </r>
       <r>   -10.6186     0.0000     0.0000 </r>
       <r>   -10.4866     0.0000     0.0000 </r>
       <r>   -10.3546     0.0000     0.0000 </r>
       <r>   -10.2226     0.0000     0.0000 </r>
       <r>   -10.0905     0.0000     0.0000 </r>
       <r>    -9.9585     0.0000     0.0000 </r>
       <r>    -9.8265     0.0000     0.0000 </r>
       <r>    -9.6945     0.0000     0.0000 </r>
       <r>    -9.5625     0.0003     0.0000 </r>
       <r>    -9.4305     0.0538     0.0071 </r>
       <r>    -9.2984     0.4154     0.0620 </r>
       <r>    -9.1664     0.3175     0.1039 </r>
       <r>    -9.0344     0.9187     0.2252 </r>
       <r>    -8.9024     0.6918     0.3165 </r>
       <r>    -8.7704     0.9867     0.4468 </r>
       <r>    -8.6384     1.1180     0.5944 </r>
       <r>    -8.5063     1.6430     0.8113 </r>
       <r>    -8.3743     1.3679     0.9918 </r>
       <r>    -8.2423     2.4701     1.3179 </r>
       <r>    -8.1103     2.2921     1.6205 </r>
       <r>    -7.9783     1.7011     1.8451 </r>
       <r>    -7.8463     1.4763     2.0400 </r>
       <r>    -7.7142     1.3121     2.2132 </r>
       <r>    -7.5822     0.7701     2.3149 </r>
       <r>    -7.4502     1.3239     2.4897 </r>
       <r>    -7.3182     1.0171     2.6240 </r>
       <r>    -7.1862     1.6605     2.8432 </r>
       <r>    -7.0542     1.0469     2.9814 </r>
       <r>    -6.9221     1.5286     3.1832 </r>
       <r>    -6.7901     0.7140     3.2774 </r>
       <r>    -6.6581     1.1207     3.4254 </r>
       <r>    -6.5261     2.5067     3.7563 </r>
       <r>    -6.3941     0.8384     3.8670 </r>
       <r>    -6.2621     0.2668     3.9022 </r>
       <r>    -6.1300     0.3161     3.9439 </r>
       <r>    -5.9980     0.6570     4.0307 </r>
       <r>    -5.8660     0.9589     4.1573 </r>
       <r>    -5.7340     2.2239     4.4508 </r>
       <r>    -5.6020     2.5259     4.7843 </r>
       <r>    -5.4699     2.3517     5.0948 </r>
       <r>    -5.3379     1.0710     5.2362 </r>
       <r>    -5.2059     1.1518     5.3882 </r>
       <r>    -5.0739     1.0219     5.5231 </r>
       <r>    -4.9419     0.8788     5.6391 </r>
       <r>    -4.8099     0.4425     5.6976 </r>
       <r>    -4.6778     0.2995     5.7371 </r>
       <r>    -4.5458     0.4497     5.7965 </r>
       <r>    -4.4138     0.6825     5.8866 </r>
       <r>    -4.2818     0.2244     5.9162 </r>
       <r>    -4.1498     0.0268     5.9197 </r>
       <r>    -4.0178     0.3284     5.9631 </r>
       <r>    -3.8857     0.1643     5.9848 </r>
       <r>    -3.7537     0.0860     5.9961 </r>
       <r>    -3.6217     0.0254     5.9995 </r>
       <r>    -3.4897     0.0041     6.0000 </r>
       <r>    -3.3577     0.0000     6.0000 </r>
       <r>    -3.2257     0.0000     6.0000 </r>
       <r>    -3.0936     0.0000     6.0000 </r>
       <r>    -2.9616     0.0000     6.0000 </r>
       <r>    -2.8296     0.0000     6.0000 </r>
       <r>    -2.6976     0.0000     6.0000 </r>
       <r>    -2.5656     0.0000     6.0000 </r>
       <r>    -2.4336     0.0000     6.0000 </r>
       <r>    -2.3015     0.0000     6.0000 </r>
       <r>    -2.1695     0.0000     6.0000 </r>
       <r>    -2.0375     0.0000     6.0000 </r>
       <r>    -1.9055     0.0000     6.0000 </r>
       <r>    -1.7735     0.0000     6.0000 </r>
       <r>    -1.6415     0.0000     6.0000 </r>
       <r>    -1.5094     0.0000     6.0000 </r>
       <r>    -1.3774     0.0000     6.0000 </r>
       <r>    -1.2454     0.0000     6.0000 </r>
       <r>    -1.1134     0.0000     6.0000 </r>
       <r>    -0.9814     0.0000     6.0000 </r>
       <r>    -0.8494     0.0085     6.0011 </r>
       <r>    -0.7173     0.1038     6.0148 </r>
       <r>    -0.5853     0.7040     6.1078 </r>
       <r>    -0.4533     0.4716     6.1700 </r>
       <r>    -0.3213     1.4957     6.3675 </r>
       <r>    -0.1893     1.0770     6.5097 </r>
       <r>    -0.0572     1.5254     6.7110 </r>
       <r>     0.0748     2.1382     6.9933 </r>
       <r>     0.2068     2.0326     7.2617 </r>
       <r>     0.3388     2.5596     7.5996 </r>
       <r>     0.4708     2.5036     7.9301 </r>
       <r>     0.6028     3.4585     8.3867 </r>
       <r>     0.7349     2.1006     8.6640 </r>
       <r>     0.8669     3.5134     9.1278 </r>
       <r>     0.9989     1.7182     9.3546 </r>
       <r>     1.1309     1.5244     9.5559 </r>
       <r>     1.2629     1.9733     9.8164 </r>
       <r>     1.3949     2.7824    10.1837 </r>
       <r>     1.5270     2.7185    10.5426 </r>
       <r>     1.6590     3.3205    10.9810 </r>
       <r>     1.7910     1.6797    11.2027 </r>
       <r>     1.9230     2.1175    11.4823 </r>
       <r>     2.0550     1.9450    11.7390 </r>
       <r>     2.1870     2.5967    12.0818 </r>
       <r>     2.3191     1.2944    12.2527 </r>
       <r>     2.4511     1.3294    12.4282 </r>
       <r>     2.5831     1.6599    12.6474 </r>
       <r>     2.7151     1.6924    12.8708 </r>
       <r>     2.8471     1.6189    13.0845 </r>
       <r>     2.9791     1.2791    13.2534 </r>
       <r>     3.1112     3.2501    13.6824 </r>
       <r>     3.2432     1.8983    13.9331 </r>
       <r>     3.3752     1.7210    14.1603 </r>
       <r>     3.5072     1.9256    14.4145 </r>
       <r>     3.6392     2.6628    14.7660 </r>
       <r>     3.7712     3.5933    15.2404 </r>
       <r>     3.9033     3.4426    15.6948 </r>
       <r>     4.0353     1.8339    15.9370 </r>
       <r>     4.1673     2.5730    16.2766 </r>
       <r>     4.2993     3.1371    16.6908 </r>
       <r>     4.4313     3.0243    17.0900 </r>
       <r>     4.5634     2.0864    17.3655 </r>
       <r>     4.6954     1.6567    17.5842 </r>
       <r>     4.8274     0.6002    17.6634 </r>
       <r>     4.9594     1.4061    17.8490 </r>
       <r>     5.0914     0.8491    17.9611 </r>
       <r>     5.2234     0.1477    17.9806 </r>
       <r>     5.3555     0.1463    17.9999 </r>
       <r>     5.4875     0.0005    18.0000 </r>
       <r>     5.6195     0.0000    18.0000 </r>
       <r>     5.7515     0.0000    18.0000 </r>
       <r>     5.8835     0.0000    18.0000 </r>
       <r>     6.0155     0.0000    18.0000 </r>
       <r>     6.1476     0.0511    18.0067 </r>
       <r>     6.2796     0.5564    18.0802 </r>
       <r>     6.4116     1.9983    18.3440 </r>
       <r>     6.5436     3.1380    18.7583 </r>
       <r>     6.6756     3.4966    19.2199 </r>
       <r>     6.8076     2.5763    19.5600 </r>
       <r>     6.9397     2.0606    19.8320 </r>
       <r>     7.0717     2.4451    20.1548 </r>
       <r>     7.2037     3.6559    20.6375 </r>
       <r>     7.3357     2.4903    20.9662 </r>
       <r>     7.4677     2.3855    21.2812 </r>
       <r>     7.5997     2.4154    21.6001 </r>
       <r>     7.7318     3.2345    22.0271 </r>
       <r>     7.8638     2.3450    22.3366 </r>
       <r>     7.9958     1.6190    22.5504 </r>
       <r>     8.1278     2.2588    22.8486 </r>
       <r>     8.2598     1.9985    23.1124 </r>
       <r>     8.3918     1.2281    23.2745 </r>
       <r>     8.5239     1.1676    23.4287 </r>
       <r>     8.6559     0.6217    23.5107 </r>
       <r>     8.7879     1.5597    23.7166 </r>
       <r>     8.9199     0.6159    23.7979 </r>
       <r>     9.0519     0.7363    23.8951 </r>
       <r>     9.1839     0.3048    23.9354 </r>
       <r>     9.3160     1.0607    24.0754 </r>
       <r>     9.4480     0.9988    24.2073 </r>
       <r>     9.5800     0.7143    24.3016 </r>
       <r>     9.7120     1.0496    24.4401 </r>
       <r>     9.8440     0.8948    24.5583 </r>
       <r>     9.9761     0.5765    24.6344 </r>
       <r>    10.1081     1.6501    24.8522 </r>
       <r>    10.2401     1.5567    25.0577 </r>
       <r>    10.3721     1.5304    25.2598 </r>
       <r>    10.5041     2.1268    25.5405 </r>
       <r>    10.6361     1.8459    25.7842 </r>
       <r>    10.7682     1.1621    25.9376 </r>
       <r>    10.9002     1.7586    26.1698 </r>
       <r>    11.0322     1.4367    26.3595 </r>
       <r>    11.1642     1.4109    26.5457 </r>
       <r>    11.2962     1.2340    26.7086 </r>
       <r>    11.4282     1.7996    26.9462 </r>
       <r>    11.5603     1.5085    27.1454 </r>
       <r>    11.6923     1.2453    27.3098 </r>
       <r>    11.8243     2.1027    27.5874 </r>
       <r>    11.9563     1.2124    27.7474 </r>
       <r>    12.0883     2.5165    28.0796 </r>
       <r>    12.2203     1.7336    28.3085 </r>
       <r>    12.3524     3.1225    28.7207 </r>
       <r>    12.4844     3.3600    29.1643 </r>
       <r>    12.6164     1.6019    29.3758 </r>
       <r>    12.7484     1.2453    29.5402 </r>
       <r>    12.8804     1.8985    29.7908 </r>
       <r>    13.0124     1.5162    29.9910 </r>
       <r>    13.1445     2.3077    30.2956 </r>
       <r>    13.2765     3.9983    30.8235 </r>
       <r>    13.4085     2.7683    31.1889 </r>
       <r>    13.5405     2.3792    31.5030 </r>
       <r>    13.6725     2.5694    31.8422 </r>
       <r>    13.8045     2.9488    32.2315 </r>
       <r>    13.9366     2.3157    32.5372 </r>
       <r>    14.0686     3.1639    32.9549 </r>
       <r>    14.2006     3.3398    33.3958 </r>
       <r>    14.3326     3.2649    33.8268 </r>
       <r>    14.4646     2.9419    34.2152 </r>
       <r>    14.5966     2.9794    34.6086 </r>
       <r>    14.7287     3.2976    35.0439 </r>
       <r>    14.8607     3.4196    35.4953 </r>
       <r>    14.9927     2.1470    35.7788 </r>
       <r>    15.1247     4.0972    36.3197 </r>
       <r>    15.2567     4.5606    36.9218 </r>
       <r>    15.3888     2.6273    37.2686 </r>
       <r>    15.5208     3.0578    37.6723 </r>
       <r>    15.6528     2.6545    38.0227 </r>
       <r>    15.7848     2.2652    38.3218 </r>
       <r>    15.9168     2.7228    38.6812 </r>
       <r>    16.0488     2.9408    39.0695 </r>
       <r>    16.1809     2.4869    39.3978 </r>
       <r>    16.3129     2.7485    39.7606 </r>
       <r>    16.4449     3.8848    40.2735 </r>
       <r>    16.5769     4.0357    40.8063 </r>
       <r>    16.7089     2.2201    41.0994 </r>
       <r>    16.8409     3.0205    41.4981 </r>
       <r>    16.9730     4.0423    42.0318 </r>
       <r>    17.1050     3.3440    42.4732 </r>
       <r>    17.2370     1.6907    42.6964 </r>
       <r>    17.3690     3.5397    43.1637 </r>
       <r>    17.5010     4.1699    43.7143 </r>
       <r>    17.6330     2.7540    44.0778 </r>
       <r>    17.7651     3.2433    44.5060 </r>
       <r>    17.8971     3.8641    45.0161 </r>
       <r>    18.0291     3.7206    45.5073 </r>
       <r>    18.1611     4.0347    46.0400 </r>
       <r>    18.2931     4.0166    46.5702 </r>
       <r>    18.4251     3.5198    47.0349 </r>
       <r>    18.5572     1.9316    47.2899 </r>
       <r>    18.6892     2.8411    47.6650 </r>
       <r>    18.8212     3.3565    48.1081 </r>
       <r>    18.9532     4.6571    48.7229 </r>
       <r>    19.0852     2.3810    49.0372 </r>
       <r>    19.2172     2.9628    49.4284 </r>
       <r>    19.3493     4.5216    50.0253 </r>
       <r>    19.4813     3.1849    50.4458 </r>
       <r>    19.6133     3.3146    50.8833 </r>
       <r>    19.7453     3.9425    51.4038 </r>
       <r>    19.8773     4.4138    51.9865 </r>
       <r>    20.0093     3.0307    52.3866 </r>
       <r>    20.1414     3.3275    52.8259 </r>
       <r>    20.2734     3.3804    53.2722 </r>
       <r>    20.4054     4.0490    53.8067 </r>
       <r>    20.5374     4.8507    54.4471 </r>
       <r>    20.6694     3.7237    54.9387 </r>
       <r>    20.8015     3.7101    55.4285 </r>
       <r>    20.9335     3.8333    55.9345 </r>
       <r>    21.0655     3.8726    56.4458 </r>
       <r>    21.1975     2.5372    56.7807 </r>
       <r>    21.3295     4.6913    57.4001 </r>
       <r>    21.4615     4.3475    57.9740 </r>
       <r>    21.5936     2.6883    58.3289 </r>
       <r>    21.7256     2.4830    58.6567 </r>
       <r>    21.8576     3.7294    59.1490 </r>
       <r>    21.9896     3.5631    59.6194 </r>
       <r>    22.1216     4.0765    60.1576 </r>
       <r>    22.2536     3.5965    60.6324 </r>
       <r>    22.3857     3.4593    61.0891 </r>
       <r>    22.5177     3.4976    61.5508 </r>
       <r>    22.6497     3.0242    61.9501 </r>
       <r>    22.7817     2.9895    62.3447 </r>
       <r>    22.9137     1.8965    62.5951 </r>
       <r>    23.0457     1.4764    62.7900 </r>
       <r>    23.1778     1.9277    63.0445 </r>
       <r>    23.3098     0.5720    63.1200 </r>
       <r>    23.4418     1.4722    63.3144 </r>
       <r>    23.5738     1.5299    63.5164 </r>
       <r>    23.7058     1.1061    63.6624 </r>
       <r>    23.8378     0.4618    63.7233 </r>
       <r>    23.9699     0.6305    63.8066 </r>
       <r>    24.1019     0.2952    63.8456 </r>
       <r>    24.2339     0.1621    63.8670 </r>
       <r>    24.3659     0.1859    63.8915 </r>
       <r>    24.4979     0.1712    63.9141 </r>
       <r>    24.6299     0.1421    63.9329 </r>
       <r>    24.7620     0.0371    63.9378 </r>
       <r>    24.8940     0.1087    63.9521 </r>
       <r>    25.0260     0.0668    63.9609 </r>
       <r>    25.1580     0.0000    63.9609 </r>
       <r>    25.2900     0.0000    63.9609 </r>
       <r>    25.4221     0.0000    63.9609 </r>
       <r>    25.5541     0.0002    63.9610 </r>
       <r>    25.6861     0.0501    63.9676 </r>
       <r>    25.8181     0.0215    63.9704 </r>
       <r>    25.9501     0.0787    63.9808 </r>
       <r>    26.0821     0.0270    63.9844 </r>
       <r>    26.2142     0.0000    63.9844 </r>
       <r>    26.3462     0.0310    63.9885 </r>
       <r>    26.4782     0.0340    63.9930 </r>
       <r>    26.6102     0.0529    63.9999 </r>
       <r>    26.7422     0.0004    64.0000 </r>
       <r>    26.8742     0.0000    64.0000 </r>
       <r>    27.0063     0.0000    64.0000 </r>
       <r>    27.1383     0.0000    64.0000 </r>
       <r>    27.2703     0.0000    64.0000 </r>
       <r>    27.4023     0.0000    64.0000 </r>
       <r>    27.5343     0.0000    64.0000 </r>
       <r>    27.6663     0.0000    64.0000 </r>
       <r>    27.7984     0.0000    64.0000 </r>
       <r>    27.9304     0.0000    64.0000 </r>
       <r>    28.0624     0.0000    64.0000 </r>
       <r>    28.1944     0.0000    64.0000 </r>
       <r>    28.3264     0.0000    64.0000 </r>
      </set>
     </set>
    </array>
   </total>
   <partial>
    <array>
     <dimension dim="1">gridpoints</dimension>
     <dimension dim="2">spin</dimension>
     <dimension dim="3">ion</dimension>
     <field>energy</field>
     <field>    s</field>
     <field>   py</field>
     <field>   pz</field>
     <field>   px</field>
     <field>  dxy</field>
     <field>  dyz</field>
     <field>  dz2</field>
     <field>  dxz</field>
     <field>x2-y2</field>
     <set>
      <set comment="ion 1">
       <set comment="spin 1">
        <r>   -11.2787     0.0000     0.0000     0.0000     0.0000     0.0000     0.0000     0.0000     0.0000     0.0000 </r>
        <r>   -11.1467     0.0000     0.0000     0.0000     0.0000     0.0000     0.0000     0.0000     0.0000     0.0000 </r>
        <r>   -11.0147     0.0000     0.0000     0.0000     0.0000     0.0000     0.0000     0.0000     0.0000     0.0000 </r>
        <r>   -10.8826     0.0000     0.0000     0.0000     0.0000     0.0000     0.0000     0.0000     0.0000     0.0000 </r>
        <r>   -10.7506     0.0000     0.0000     0.0000     0.0000     0.0000     0.0000     0.0000     0.0000     0.0000 </r>
        <r>   -10.6186     0.0000     0.0000     0.0000     0.0000     0.0000     0.0000     0.0000     0.0000     0.0000 </r>
        <r>   -10.4866     0.0000     0.0000     0.0000     0.0000     0.0000     0.0000     0.0000     0.0000     0.0000 </r>
        <r>   -10.3546     0.0000     0.0000     0.0000     0.0000     0.0000     0.0000     0.0000     0.0000     0.0000 </r>
        <r>   -10.2226     0.0000     0.0000     0.0000     0.0000     0.0000     0.0000     0.0000     0.0000     0.0000 </r>
        <r>   -10.0905     0.0000     0.0000     0.0000     0.0000     0.0000     0.0000     0.0000     0.0000     0.0000 </r>
        <r>    -9.9585     0.0000     0.0000     0.0000     0.0000     0.0000     0.0000     0.0000     0.0000     0.0000 </r>
        <r>    -9.8265     0.0000     0.0000     0.0000     0.0000     0.0000     0.0000     0.0000     0.0000     0.0000 </r>
        <r>    -9.6945     0.0000     0.0000     0.0000     0.0000     0.0000     0.0000     0.0000     0.0000     0.0000 </r>
        <r>    -9.5625     0.0001     0.0000     0.0000     0.0000     0.0000     0.0000     0.0000     0.0000     0.0000 </r>
        <r>    -9.4305     0.0109     0.0000     0.0000     0.0001     0.0000     0.0000     0.0000     0.0000     0.0000 </r>
        <r>    -9.2984     0.0844     0.0002     0.0001     0.0006     0.0000     0.0000     0.0000     0.0000     0.0000 </r>
        <r>    -9.1664     0.0646     0.0002     0.0002     0.0005     0.0000     0.0000     0.0000     0.0000     0.0000 </r>
        <r>    -9.0344     0.1880     0.0008     0.0006     0.0017     0.0000     0.0001     0.0000     0.0000     0.0000 </r>
        <r>    -8.9024     0.1422     0.0007     0.0006     0.0014     0.0000     0.0001     0.0000     0.0000     0.0000 </r>
        <r>    -8.7704     0.2033     0.0010     0.0016     0.0020     0.0000     0.0001     0.0000     0.0001     0.0000 </r>
        <r>    -8.6384     0.2331     0.0016     0.0007     0.0033     0.0000     0.0001     0.0001     0.0001     0.0001 </r>
        <r>    -8.5063     0.3437     0.0023     0.0023     0.0044     0.0001     0.0002     0.0001     0.0002     0.0001 </r>
        <r>    -8.3743     0.2886     0.0019     0.0024     0.0043     0.0001     0.0002     0.0001     0.0002     0.0001 </r>
        <r>    -8.2423     0.5265     0.0039     0.0032     0.0086     0.0001     0.0004     0.0001     0.0004     0.0002 </r>
        <r>    -8.1103     0.4919     0.0036     0.0036     0.0081     0.0001     0.0004     0.0001     0.0004     0.0002 </r>
        <r>    -7.9783     0.3681     0.0023     0.0038     0.0047     0.0001     0.0003     0.0001     0.0005     0.0001 </r>
        <r>    -7.8463     0.3169     0.0017     0.0054     0.0031     0.0001     0.0003     0.0000     0.0004     0.0001 </r>
        <r>    -7.7142     0.2838     0.0014     0.0050     0.0026     0.0001     0.0003     0.0000     0.0004     0.0001 </r>
        <r>    -7.5822     0.1665     0.0010     0.0033     0.0016     0.0001     0.0002     0.0000     0.0003     0.0000 </r>
        <r>    -7.4502     0.2888     0.0021     0.0054     0.0031     0.0001     0.0003     0.0000     0.0005     0.0001 </r>
        <r>    -7.3182     0.2221     0.0016     0.0050     0.0019     0.0001     0.0002     0.0000     0.0004     0.0001 </r>
        <r>    -7.1862     0.3639     0.0025     0.0089     0.0027     0.0002     0.0004     0.0000     0.0007     0.0001 </r>
        <r>    -7.0542     0.2291     0.0012     0.0064     0.0009     0.0001     0.0002     0.0000     0.0004     0.0001 </r>
        <r>    -6.9221     0.3398     0.0029     0.0070     0.0019     0.0002     0.0004     0.0000     0.0007     0.0001 </r>
        <r>    -6.7901     0.1587     0.0017     0.0028     0.0010     0.0001     0.0002     0.0000     0.0003     0.0000 </r>
        <r>    -6.6581     0.2467     0.0028     0.0053     0.0013     0.0001     0.0002     0.0000     0.0004     0.0001 </r>
        <r>    -6.5261     0.5546     0.0049     0.0154     0.0027     0.0003     0.0005     0.0000     0.0010     0.0002 </r>
        <r>    -6.3941     0.1866     0.0019     0.0044     0.0012     0.0001     0.0002     0.0000     0.0003     0.0001 </r>
        <r>    -6.2621     0.0599     0.0007     0.0013     0.0005     0.0000     0.0000     0.0000     0.0001     0.0000 </r>
        <r>    -6.1300     0.0715     0.0007     0.0017     0.0005     0.0000     0.0000     0.0000     0.0001     0.0000 </r>
        <r>    -5.9980     0.1497     0.0013     0.0034     0.0009     0.0001     0.0001     0.0000     0.0003     0.0001 </r>
        <r>    -5.8660     0.2180     0.0014     0.0068     0.0012     0.0001     0.0002     0.0000     0.0004     0.0001 </r>
        <r>    -5.7340     0.5148     0.0032     0.0104     0.0036     0.0003     0.0005     0.0000     0.0010     0.0002 </r>
        <r>    -5.6020     0.5839     0.0044     0.0066     0.0077     0.0003     0.0005     0.0000     0.0008     0.0002 </r>
        <r>    -5.4699     0.5419     0.0046     0.0049     0.0095     0.0002     0.0005     0.0000     0.0005     0.0001 </r>
        <r>    -5.3379     0.2495     0.0020     0.0034     0.0038     0.0001     0.0002     0.0000     0.0002     0.0001 </r>
        <r>    -5.2059     0.2717     0.0017     0.0058     0.0033     0.0001     0.0002     0.0000     0.0003     0.0001 </r>
        <r>    -5.0739     0.2418     0.0017     0.0044     0.0035     0.0001     0.0002     0.0000     0.0002     0.0001 </r>
        <r>    -4.9419     0.2105     0.0020     0.0012     0.0041     0.0000     0.0001     0.0000     0.0001     0.0000 </r>
        <r>    -4.8099     0.1081     0.0006     0.0016     0.0014     0.0000     0.0001     0.0000     0.0001     0.0000 </r>
        <r>    -4.6778     0.0733     0.0005     0.0011     0.0010     0.0000     0.0000     0.0000     0.0000     0.0000 </r>
        <r>    -4.5458     0.1118     0.0006     0.0018     0.0014     0.0000     0.0001     0.0000     0.0001     0.0000 </r>
        <r>    -4.4138     0.1711     0.0011     0.0021     0.0022     0.0000     0.0001     0.0000     0.0001     0.0000 </r>
        <r>    -4.2818     0.0570     0.0004     0.0003     0.0008     0.0000     0.0000     0.0000     0.0000     0.0000 </r>
        <r>    -4.1498     0.0069     0.0000     0.0000     0.0001     0.0000     0.0000     0.0000     0.0000     0.0000 </r>
        <r>    -4.0178     0.0861     0.0003     0.0009     0.0007     0.0000     0.0000     0.0000     0.0000     0.0000 </r>
        <r>    -3.8857     0.0440     0.0002     0.0001     0.0004     0.0000     0.0000     0.0000     0.0000     0.0000 </r>
        <r>    -3.7537     0.0231     0.0001     0.0001     0.0002     0.0000     0.0000     0.0000     0.0000     0.0000 </r>
        <r>    -3.6217     0.0070     0.0000     0.0000     0.0000     0.0000     0.0000     0.0000     0.0000     0.0000 </r>
        <r>    -3.4897     0.0011     0.0000     0.0000     0.0000     0.0000     0.0000     0.0000     0.0000     0.0000 </r>
        <r>    -3.3577     0.0000     0.0000     0.0000     0.0000     0.0000     0.0000     0.0000     0.0000     0.0000 </r>
        <r>    -3.2257     0.0000     0.0000     0.0000     0.0000     0.0000     0.0000     0.0000     0.0000     0.0000 </r>
        <r>    -3.0936     0.0000     0.0000     0.0000     0.0000     0.0000     0.0000     0.0000     0.0000     0.0000 </r>
        <r>    -2.9616     0.0000     0.0000     0.0000     0.0000     0.0000     0.0000     0.0000     0.0000     0.0000 </r>
        <r>    -2.8296     0.0000     0.0000     0.0000     0.0000     0.0000     0.0000     0.0000     0.0000     0.0000 </r>
        <r>    -2.6976     0.0000     0.0000     0.0000     0.0000     0.0000     0.0000     0.0000     0.0000     0.0000 </r>
        <r>    -2.5656     0.0000     0.0000     0.0000     0.0000     0.0000     0.0000     0.0000     0.0000     0.0000 </r>
        <r>    -2.4336     0.0000     0.0000     0.0000     0.0000     0.0000     0.0000     0.0000     0.0000     0.0000 </r>
        <r>    -2.3015     0.0000     0.0000     0.0000     0.0000     0.0000     0.0000     0.0000     0.0000     0.0000 </r>
        <r>    -2.1695     0.0000     0.0000     0.0000     0.0000     0.0000     0.0000     0.0000     0.0000     0.0000 </r>
        <r>    -2.0375     0.0000     0.0000     0.0000     0.0000     0.0000     0.0000     0.0000     0.0000     0.0000 </r>
        <r>    -1.9055     0.0000     0.0000     0.0000     0.0000     0.0000     0.0000     0.0000     0.0000     0.0000 </r>
        <r>    -1.7735     0.0000     0.0000     0.0000     0.0000     0.0000     0.0000     0.0000     0.0000     0.0000 </r>
        <r>    -1.6415     0.0000     0.0000     0.0000     0.0000     0.0000     0.0000     0.0000     0.0000     0.0000 </r>
        <r>    -1.5094     0.0000     0.0000     0.0000     0.0000     0.0000     0.0000     0.0000     0.0000     0.0000 </r>
        <r>    -1.3774     0.0000     0.0000     0.0000     0.0000     0.0000     0.0000     0.0000     0.0000     0.0000 </r>
        <r>    -1.2454     0.0000     0.0000     0.0000     0.0000     0.0000     0.0000     0.0000     0.0000     0.0000 </r>
        <r>    -1.1134     0.0000     0.0000     0.0000     0.0000     0.0000     0.0000     0.0000     0.0000     0.0000 </r>
        <r>    -0.9814     0.0000     0.0000     0.0000     0.0000     0.0000     0.0000     0.0000     0.0000     0.0000 </r>
        <r>    -0.8494     0.0000     0.0004     0.0004     0.0003     0.0000     0.0000     0.0000     0.0000     0.0000 </r>
        <r>    -0.7173     0.0002     0.0046     0.0045     0.0040     0.0000     0.0000     0.0000     0.0000     0.0000 </r>
        <r>    -0.5853     0.0017     0.0325     0.0309     0.0265     0.0001     0.0001     0.0000     0.0001     0.0001 </r>
        <r>    -0.4533     0.0015     0.0226     0.0208     0.0172     0.0001     0.0000     0.0000     0.0001     0.0001 </r>
        <r>    -0.3213     0.0058     0.0685     0.0671     0.0570     0.0003     0.0003     0.0001     0.0004     0.0002 </r>
        <r>    -0.1893     0.0030     0.0480     0.0505     0.0432     0.0004     0.0002     0.0001     0.0004     0.0002 </r>
        <r>    -0.0572     0.0070     0.0657     0.0707     0.0635     0.0004     0.0004     0.0003     0.0005     0.0003 </r>
        <r>     0.0748     0.0073     0.0827     0.1090     0.0941     0.0006     0.0006     0.0004     0.0011     0.0005 </r>
        <r>     0.2068     0.0061     0.0657     0.1232     0.0881     0.0005     0.0007     0.0004     0.0013     0.0005 </r>
        <r>     0.3388     0.0108     0.0993     0.1507     0.1033     0.0010     0.0009     0.0007     0.0017     0.0007 </r>
        <r>     0.4708     0.0088     0.0874     0.1715     0.0962     0.0009     0.0011     0.0005     0.0021     0.0007 </r>
        <r>     0.6028     0.0163     0.1277     0.2334     0.1327     0.0014     0.0019     0.0005     0.0031     0.0011 </r>
        <r>     0.7349     0.0086     0.0728     0.1556     0.0781     0.0007     0.0011     0.0007     0.0020     0.0005 </r>
        <r>     0.8669     0.0243     0.1361     0.2408     0.1308     0.0020     0.0017     0.0007     0.0033     0.0014 </r>
        <r>     0.9989     0.0138     0.0578     0.1229     0.0687     0.0009     0.0008     0.0003     0.0015     0.0007 </r>
        <r>     1.1309     0.0121     0.0501     0.1184     0.0569     0.0009     0.0007     0.0003     0.0014     0.0006 </r>
        <r>     1.2629     0.0168     0.0649     0.1390     0.0905     0.0010     0.0010     0.0006     0.0017     0.0009 </r>
        <r>     1.3949     0.0233     0.1240     0.1194     0.1634     0.0011     0.0013     0.0007     0.0019     0.0011 </r>
        <r>     1.5270     0.0251     0.1164     0.0927     0.1820     0.0007     0.0016     0.0008     0.0019     0.0010 </r>
        <r>     1.6590     0.0327     0.1512     0.1047     0.2310     0.0011     0.0021     0.0008     0.0024     0.0013 </r>
        <r>     1.7910     0.0169     0.0873     0.0412     0.1182     0.0005     0.0010     0.0004     0.0012     0.0006 </r>
        <r>     1.9230     0.0275     0.1032     0.0612     0.1374     0.0005     0.0018     0.0008     0.0018     0.0007 </r>
        <r>     2.0550     0.0240     0.0966     0.0554     0.1294     0.0006     0.0015     0.0007     0.0017     0.0009 </r>
        <r>     2.1870     0.0282     0.1354     0.0647     0.1926     0.0008     0.0019     0.0007     0.0020     0.0012 </r>
        <r>     2.3191     0.0141     0.0667     0.0362     0.0891     0.0003     0.0011     0.0006     0.0014     0.0004 </r>
        <r>     2.4511     0.0156     0.0620     0.0451     0.0883     0.0004     0.0012     0.0005     0.0015     0.0005 </r>
        <r>     2.5831     0.0185     0.0848     0.0608     0.0891     0.0005     0.0017     0.0007     0.0022     0.0007 </r>
        <r>     2.7151     0.0193     0.1004     0.0617     0.0738     0.0005     0.0020     0.0007     0.0020     0.0007 </r>
        <r>     2.8471     0.0159     0.0961     0.0611     0.0716     0.0005     0.0018     0.0009     0.0021     0.0007 </r>
        <r>     2.9791     0.0155     0.0744     0.0499     0.0558     0.0008     0.0014     0.0004     0.0018     0.0007 </r>
        <r>     3.1112     0.0358     0.1953     0.1370     0.1338     0.0015     0.0039     0.0012     0.0048     0.0018 </r>
        <r>     3.2432     0.0160     0.1213     0.0891     0.0701     0.0010     0.0018     0.0006     0.0029     0.0010 </r>
        <r>     3.3752     0.0195     0.1173     0.0715     0.0661     0.0011     0.0016     0.0007     0.0021     0.0011 </r>
        <r>     3.5072     0.0233     0.1236     0.0919     0.0717     0.0013     0.0019     0.0009     0.0029     0.0015 </r>
        <r>     3.6392     0.0320     0.1834     0.1015     0.1179     0.0014     0.0028     0.0012     0.0033     0.0018 </r>
        <r>     3.7712     0.0451     0.2474     0.1392     0.1585     0.0022     0.0042     0.0016     0.0055     0.0026 </r>
        <r>     3.9033     0.0383     0.2627     0.1469     0.1271     0.0020     0.0036     0.0015     0.0051     0.0022 </r>
        <r>     4.0353     0.0219     0.1433     0.0736     0.0716     0.0013     0.0013     0.0010     0.0022     0.0017 </r>
        <r>     4.1673     0.0250     0.1853     0.0987     0.1303     0.0015     0.0027     0.0013     0.0040     0.0024 </r>
        <r>     4.2993     0.0325     0.2230     0.1182     0.1657     0.0020     0.0035     0.0013     0.0047     0.0029 </r>
        <r>     4.4313     0.0366     0.2435     0.0982     0.1496     0.0017     0.0037     0.0016     0.0052     0.0017 </r>
        <r>     4.5634     0.0260     0.1721     0.0759     0.0967     0.0010     0.0028     0.0011     0.0039     0.0009 </r>
        <r>     4.6954     0.0188     0.1448     0.0569     0.0747     0.0011     0.0019     0.0010     0.0036     0.0008 </r>
        <r>     4.8274     0.0091     0.0530     0.0181     0.0298     0.0003     0.0007     0.0005     0.0009     0.0004 </r>
        <r>     4.9594     0.0219     0.1240     0.0408     0.0698     0.0005     0.0018     0.0011     0.0031     0.0005 </r>
        <r>     5.0914     0.0135     0.0772     0.0226     0.0428     0.0003     0.0010     0.0007     0.0019     0.0003 </r>
        <r>     5.2234     0.0026     0.0135     0.0040     0.0072     0.0000     0.0002     0.0001     0.0004     0.0000 </r>
        <r>     5.3555     0.0029     0.0137     0.0013     0.0101     0.0000     0.0002     0.0001     0.0001     0.0000 </r>
        <r>     5.4875     0.0000     0.0000     0.0000     0.0000     0.0000     0.0000     0.0000     0.0000     0.0000 </r>
        <r>     5.6195     0.0000     0.0000     0.0000     0.0000     0.0000     0.0000     0.0000     0.0000     0.0000 </r>
        <r>     5.7515     0.0000     0.0000     0.0000     0.0000     0.0000     0.0000     0.0000     0.0000     0.0000 </r>
        <r>     5.8835     0.0000     0.0000     0.0000     0.0000     0.0000     0.0000     0.0000     0.0000     0.0000 </r>
        <r>     6.0155     0.0000     0.0000     0.0000     0.0000     0.0000     0.0000     0.0000     0.0000     0.0000 </r>
        <r>     6.1476     0.0010     0.0019     0.0016     0.0038     0.0001     0.0001     0.0001     0.0001     0.0001 </r>
        <r>     6.2796     0.0110     0.0258     0.0143     0.0410     0.0006     0.0007     0.0012     0.0011     0.0007 </r>
        <r>     6.4116     0.0375     0.1046     0.0637     0.1279     0.0026     0.0031     0.0026     0.0046     0.0021 </r>
        <r>     6.5436     0.0554     0.1420     0.1115     0.2232     0.0032     0.0059     0.0057     0.0065     0.0031 </r>
        <r>     6.6756     0.0512     0.1548     0.1369     0.2449     0.0050     0.0072     0.0051     0.0092     0.0040 </r>
        <r>     6.8076     0.0353     0.1043     0.1161     0.1832     0.0037     0.0056     0.0036     0.0061     0.0029 </r>
        <r>     6.9397     0.0303     0.0851     0.1094     0.1320     0.0034     0.0041     0.0023     0.0048     0.0023 </r>
        <r>     7.0717     0.0264     0.1046     0.1304     0.1641     0.0034     0.0057     0.0042     0.0055     0.0030 </r>
        <r>     7.2037     0.0322     0.1283     0.2582     0.2143     0.0057     0.0104     0.0053     0.0095     0.0044 </r>
        <r>     7.3357     0.0154     0.0746     0.2378     0.1033     0.0053     0.0060     0.0023     0.0069     0.0034 </r>
        <r>     7.4677     0.0147     0.0983     0.1944     0.1170     0.0041     0.0062     0.0022     0.0067     0.0033 </r>
        <r>     7.5997     0.0166     0.1028     0.1894     0.1278     0.0037     0.0062     0.0031     0.0066     0.0030 </r>
        <r>     7.7318     0.0180     0.1284     0.2767     0.1594     0.0058     0.0079     0.0043     0.0082     0.0046 </r>
        <r>     7.8638     0.0140     0.1033     0.1946     0.1162     0.0036     0.0061     0.0035     0.0065     0.0028 </r>
        <r>     7.9958     0.0083     0.0691     0.1326     0.0886     0.0028     0.0036     0.0025     0.0035     0.0027 </r>
        <r>     8.1278     0.0085     0.0890     0.2032     0.1188     0.0035     0.0056     0.0034     0.0060     0.0035 </r>
        <r>     8.2598     0.0088     0.0884     0.1719     0.1115     0.0029     0.0044     0.0031     0.0049     0.0027 </r>
        <r>     8.3918     0.0051     0.0642     0.1020     0.0693     0.0016     0.0024     0.0018     0.0028     0.0015 </r>
        <r>     8.5239     0.0034     0.0658     0.0933     0.0698     0.0017     0.0022     0.0017     0.0026     0.0014 </r>
        <r>     8.6559     0.0033     0.0373     0.0484     0.0375     0.0010     0.0008     0.0006     0.0011     0.0011 </r>
        <r>     8.7879     0.0058     0.0915     0.1215     0.0924     0.0023     0.0029     0.0026     0.0032     0.0022 </r>
        <r>     8.9199     0.0019     0.0373     0.0460     0.0339     0.0012     0.0015     0.0010     0.0013     0.0010 </r>
        <r>     9.0519     0.0016     0.0212     0.0261     0.0242     0.0049     0.0037     0.0051     0.0018     0.0041 </r>
        <r>     9.1839     0.0005     0.0154     0.0182     0.0145     0.0012     0.0009     0.0012     0.0005     0.0010 </r>
        <r>     9.3160     0.0027     0.0563     0.0785     0.0700     0.0024     0.0019     0.0023     0.0014     0.0023 </r>
        <r>     9.4480     0.0014     0.0165     0.0139     0.0179     0.0094     0.0062     0.0103     0.0030     0.0078 </r>
        <r>     9.5800     0.0008     0.0125     0.0098     0.0127     0.0067     0.0041     0.0075     0.0021     0.0058 </r>
        <r>     9.7120     0.0010     0.0159     0.0097     0.0136     0.0104     0.0066     0.0118     0.0031     0.0091 </r>
        <r>     9.8440     0.0009     0.0133     0.0082     0.0124     0.0092     0.0048     0.0100     0.0031     0.0081 </r>
        <r>     9.9761     0.0006     0.0087     0.0049     0.0067     0.0052     0.0026     0.0082     0.0021     0.0052 </r>
        <r>    10.1081     0.0016     0.0176     0.0102     0.0124     0.0139     0.0080     0.0295     0.0061     0.0157 </r>
        <r>    10.2401     0.0014     0.0180     0.0127     0.0131     0.0147     0.0072     0.0271     0.0056     0.0132 </r>
        <r>    10.3721     0.0020     0.0130     0.0087     0.0143     0.0115     0.0091     0.0283     0.0064     0.0161 </r>
        <r>    10.5041     0.0023     0.0245     0.0204     0.0196     0.0200     0.0101     0.0253     0.0120     0.0230 </r>
        <r>    10.6361     0.0022     0.0199     0.0187     0.0146     0.0184     0.0087     0.0219     0.0109     0.0199 </r>
        <r>    10.7682     0.0013     0.0121     0.0101     0.0072     0.0115     0.0048     0.0174     0.0077     0.0125 </r>
        <r>    10.9002     0.0029     0.0186     0.0149     0.0126     0.0213     0.0072     0.0249     0.0093     0.0173 </r>
        <r>    11.0322     0.0024     0.0164     0.0077     0.0102     0.0170     0.0082     0.0185     0.0090     0.0147 </r>
        <r>    11.1642     0.0024     0.0115     0.0050     0.0084     0.0186     0.0097     0.0212     0.0075     0.0150 </r>
        <r>    11.2962     0.0022     0.0096     0.0079     0.0072     0.0106     0.0081     0.0303     0.0060     0.0111 </r>
        <r>    11.4282     0.0017     0.0158     0.0197     0.0066     0.0200     0.0145     0.0268     0.0137     0.0221 </r>
        <r>    11.5603     0.0014     0.0112     0.0116     0.0057     0.0181     0.0146     0.0243     0.0118     0.0202 </r>
        <r>    11.6923     0.0022     0.0108     0.0093     0.0076     0.0139     0.0092     0.0177     0.0084     0.0150 </r>
        <r>    11.8243     0.0051     0.0159     0.0121     0.0157     0.0274     0.0177     0.0313     0.0159     0.0262 </r>
        <r>    11.9563     0.0047     0.0108     0.0054     0.0081     0.0135     0.0099     0.0203     0.0086     0.0152 </r>
        <r>    12.0883     0.0089     0.0241     0.0205     0.0188     0.0283     0.0245     0.0327     0.0262     0.0322 </r>
        <r>    12.2203     0.0099     0.0204     0.0099     0.0198     0.0231     0.0151     0.0143     0.0150     0.0222 </r>
        <r>    12.3524     0.0119     0.0195     0.0257     0.0231     0.0457     0.0405     0.0342     0.0325     0.0450 </r>
        <r>    12.4844     0.0187     0.0239     0.0287     0.0194     0.0423     0.0330     0.0507     0.0360     0.0409 </r>
        <r>    12.6164     0.0115     0.0132     0.0122     0.0180     0.0165     0.0149     0.0182     0.0184     0.0180 </r>
        <r>    12.7484     0.0070     0.0096     0.0062     0.0101     0.0126     0.0152     0.0163     0.0165     0.0193 </r>
        <r>    12.8804     0.0148     0.0137     0.0114     0.0149     0.0195     0.0189     0.0328     0.0231     0.0227 </r>
        <r>    13.0124     0.0153     0.0111     0.0145     0.0138     0.0176     0.0203     0.0170     0.0151     0.0170 </r>
        <r>    13.1445     0.0245     0.0199     0.0240     0.0173     0.0240     0.0299     0.0290     0.0325     0.0244 </r>
        <r>    13.2765     0.0267     0.0356     0.0333     0.0344     0.0481     0.0523     0.0589     0.0476     0.0406 </r>
        <r>    13.4085     0.0182     0.0270     0.0252     0.0244     0.0378     0.0330     0.0265     0.0318     0.0395 </r>
        <r>    13.5405     0.0171     0.0266     0.0262     0.0207     0.0338     0.0281     0.0234     0.0251     0.0321 </r>
        <r>    13.6725     0.0165     0.0210     0.0182     0.0257     0.0394     0.0423     0.0268     0.0369     0.0363 </r>
        <r>    13.8045     0.0167     0.0311     0.0260     0.0293     0.0481     0.0479     0.0248     0.0379     0.0385 </r>
        <r>    13.9366     0.0164     0.0231     0.0139     0.0239     0.0293     0.0305     0.0378     0.0239     0.0282 </r>
        <r>    14.0686     0.0173     0.0349     0.0218     0.0364     0.0352     0.0462     0.0363     0.0382     0.0401 </r>
        <r>    14.2006     0.0276     0.0229     0.0288     0.0312     0.0462     0.0443     0.0324     0.0379     0.0492 </r>
        <r>    14.3326     0.0234     0.0307     0.0313     0.0338     0.0427     0.0595     0.0319     0.0582     0.0437 </r>
        <r>    14.4646     0.0264     0.0267     0.0159     0.0322     0.0414     0.0610     0.0257     0.0508     0.0367 </r>
        <r>    14.5966     0.0157     0.0335     0.0237     0.0383     0.0484     0.0577     0.0232     0.0417     0.0432 </r>
        <r>    14.7287     0.0215     0.0328     0.0328     0.0411     0.0518     0.0439     0.0432     0.0406     0.0453 </r>
        <r>    14.8607     0.0304     0.0268     0.0224     0.0319     0.0474     0.0470     0.0529     0.0405     0.0426 </r>
        <r>    14.9927     0.0144     0.0190     0.0182     0.0197     0.0331     0.0340     0.0247     0.0320     0.0384 </r>
        <r>    15.1247     0.0274     0.0414     0.0347     0.0399     0.0566     0.0718     0.0542     0.0699     0.0671 </r>
        <r>    15.2567     0.0309     0.0467     0.0297     0.0444     0.0654     0.0813     0.0700     0.0764     0.0790 </r>
        <r>    15.3888     0.0158     0.0244     0.0188     0.0247     0.0425     0.0501     0.0388     0.0483     0.0424 </r>
        <r>    15.5208     0.0183     0.0281     0.0220     0.0261     0.0493     0.0508     0.0519     0.0485     0.0476 </r>
        <r>    15.6528     0.0199     0.0195     0.0249     0.0220     0.0442     0.0425     0.0445     0.0417     0.0474 </r>
        <r>    15.7848     0.0213     0.0156     0.0214     0.0175     0.0344     0.0451     0.0333     0.0446     0.0309 </r>
        <r>    15.9168     0.0211     0.0229     0.0146     0.0202     0.0439     0.0570     0.0329     0.0514     0.0462 </r>
        <r>    16.0488     0.0203     0.0263     0.0163     0.0230     0.0502     0.0407     0.0530     0.0477     0.0603 </r>
        <r>    16.1809     0.0160     0.0230     0.0184     0.0228     0.0351     0.0430     0.0399     0.0526     0.0401 </r>
        <r>    16.3129     0.0125     0.0250     0.0181     0.0282     0.0384     0.0519     0.0472     0.0490     0.0403 </r>
        <r>    16.4449     0.0306     0.0328     0.0309     0.0377     0.0633     0.0803     0.0535     0.0655     0.0638 </r>
        <r>    16.5769     0.0249     0.0289     0.0322     0.0287     0.0581     0.0889     0.0654     0.0842     0.0620 </r>
        <r>    16.7089     0.0143     0.0224     0.0194     0.0209     0.0299     0.0518     0.0439     0.0408     0.0343 </r>
        <r>    16.8409     0.0165     0.0204     0.0169     0.0284     0.0426     0.0513     0.0577     0.0477     0.0656 </r>
        <r>    16.9730     0.0283     0.0287     0.0301     0.0393     0.0630     0.0806     0.0727     0.0804     0.0742 </r>
        <r>    17.1050     0.0296     0.0238     0.0283     0.0301     0.0645     0.0666     0.0536     0.0700     0.0662 </r>
        <r>    17.2370     0.0118     0.0107     0.0119     0.0112     0.0349     0.0331     0.0198     0.0364     0.0389 </r>
        <r>    17.3690     0.0159     0.0255     0.0324     0.0236     0.0712     0.0523     0.0678     0.0652     0.0764 </r>
        <r>    17.5010     0.0266     0.0366     0.0429     0.0305     0.0969     0.0703     0.0631     0.0799     0.0931 </r>
        <r>    17.6330     0.0187     0.0255     0.0269     0.0210     0.0518     0.0564     0.0418     0.0648     0.0434 </r>
        <r>    17.7651     0.0169     0.0253     0.0285     0.0203     0.0563     0.0582     0.0602     0.0553     0.0711 </r>
        <r>    17.8971     0.0269     0.0255     0.0299     0.0302     0.0688     0.0828     0.0700     0.0787     0.0704 </r>
        <r>    18.0291     0.0253     0.0267     0.0236     0.0262     0.0628     0.0656     0.0709     0.0682     0.0731 </r>
        <r>    18.1611     0.0187     0.0320     0.0295     0.0299     0.0759     0.0584     0.0873     0.0739     0.0929 </r>
        <r>    18.2931     0.0208     0.0313     0.0336     0.0288     0.0846     0.0829     0.0735     0.0961     0.0837 </r>
        <r>    18.4251     0.0207     0.0275     0.0252     0.0223     0.0751     0.0672     0.0676     0.0739     0.0767 </r>
        <r>    18.5572     0.0089     0.0134     0.0154     0.0124     0.0418     0.0275     0.0338     0.0416     0.0349 </r>
        <r>    18.6892     0.0179     0.0193     0.0250     0.0196     0.0601     0.0549     0.0476     0.0670     0.0623 </r>
        <r>    18.8212     0.0223     0.0268     0.0198     0.0258     0.0634     0.0775     0.0739     0.0706     0.0603 </r>
        <r>    18.9532     0.0264     0.0474     0.0375     0.0414     0.0901     0.0873     0.0789     0.1091     0.0821 </r>
        <r>    19.0852     0.0155     0.0155     0.0191     0.0155     0.0516     0.0477     0.0412     0.0564     0.0358 </r>
        <r>    19.2172     0.0247     0.0181     0.0236     0.0193     0.0626     0.0602     0.0563     0.0658     0.0637 </r>
        <r>    19.3493     0.0225     0.0328     0.0377     0.0285     0.0816     0.0780     0.1056     0.0945     0.0809 </r>
        <r>    19.4813     0.0184     0.0330     0.0260     0.0198     0.0753     0.0607     0.0639     0.0721     0.0585 </r>
        <r>    19.6133     0.0203     0.0267     0.0248     0.0272     0.0640     0.0709     0.0607     0.0637     0.0518 </r>
        <r>    19.7453     0.0211     0.0384     0.0377     0.0322     0.0762     0.0775     0.0947     0.0819     0.0745 </r>
        <r>    19.8773     0.0217     0.0410     0.0430     0.0364     0.0914     0.0972     0.1004     0.1103     0.0840 </r>
        <r>    20.0093     0.0177     0.0208     0.0300     0.0248     0.0489     0.0551     0.0818     0.0662     0.0585 </r>
        <r>    20.1414     0.0117     0.0280     0.0270     0.0286     0.0654     0.0674     0.0917     0.0695     0.0600 </r>
        <r>    20.2734     0.0122     0.0272     0.0187     0.0253     0.0797     0.0514     0.0816     0.0470     0.0683 </r>
        <r>    20.4054     0.0167     0.0334     0.0345     0.0326     0.0906     0.0857     0.0878     0.0922     0.0813 </r>
        <r>    20.5374     0.0190     0.0305     0.0372     0.0386     0.1045     0.0915     0.0996     0.0898     0.1035 </r>
        <r>    20.6694     0.0140     0.0246     0.0214     0.0300     0.0733     0.0543     0.0995     0.0573     0.0687 </r>
        <r>    20.8015     0.0132     0.0299     0.0286     0.0342     0.0792     0.0796     0.0770     0.0775     0.0851 </r>
        <r>    20.9335     0.0143     0.0283     0.0291     0.0316     0.0892     0.0804     0.0691     0.0750     0.0932 </r>
        <r>    21.0655     0.0152     0.0293     0.0261     0.0302     0.0765     0.0800     0.0851     0.0731     0.0741 </r>
        <r>    21.1975     0.0147     0.0186     0.0166     0.0190     0.0566     0.0475     0.0560     0.0466     0.0554 </r>
        <r>    21.3295     0.0215     0.0319     0.0316     0.0355     0.1085     0.0744     0.1028     0.0799     0.1093 </r>
        <r>    21.4615     0.0206     0.0353     0.0302     0.0361     0.0960     0.0873     0.0933     0.1019     0.0932 </r>
        <r>    21.5936     0.0131     0.0223     0.0221     0.0192     0.0545     0.0588     0.0509     0.0575     0.0465 </r>
        <r>    21.7256     0.0122     0.0199     0.0189     0.0145     0.0574     0.0609     0.0406     0.0586     0.0521 </r>
        <r>    21.8576     0.0154     0.0245     0.0285     0.0184     0.0987     0.0836     0.0987     0.0931     0.0939 </r>
        <r>    21.9896     0.0175     0.0245     0.0257     0.0253     0.0926     0.0807     0.0776     0.0874     0.0792 </r>
        <r>    22.1216     0.0166     0.0247     0.0262     0.0251     0.1062     0.0951     0.0849     0.0954     0.0892 </r>
        <r>    22.2536     0.0110     0.0279     0.0264     0.0258     0.0991     0.0884     0.1125     0.1016     0.0768 </r>
        <r>    22.3857     0.0134     0.0203     0.0270     0.0181     0.0856     0.0953     0.0881     0.0825     0.0811 </r>
        <r>    22.5177     0.0138     0.0235     0.0275     0.0191     0.0932     0.0833     0.0945     0.0800     0.0895 </r>
        <r>    22.6497     0.0134     0.0202     0.0251     0.0204     0.0767     0.1124     0.0642     0.0932     0.0703 </r>
        <r>    22.7817     0.0127     0.0196     0.0222     0.0203     0.0793     0.0970     0.0868     0.0921     0.0886 </r>
        <r>    22.9137     0.0084     0.0095     0.0110     0.0123     0.0661     0.0669     0.0598     0.0639     0.0548 </r>
        <r>    23.0457     0.0050     0.0090     0.0053     0.0109     0.0444     0.0414     0.0434     0.0295     0.0407 </r>
        <r>    23.1778     0.0073     0.0144     0.0136     0.0162     0.0509     0.0550     0.0428     0.0479     0.0609 </r>
        <r>    23.3098     0.0021     0.0050     0.0025     0.0050     0.0199     0.0130     0.0158     0.0132     0.0211 </r>
        <r>    23.4418     0.0054     0.0129     0.0077     0.0111     0.0501     0.0350     0.0566     0.0332     0.0507 </r>
        <r>    23.5738     0.0079     0.0101     0.0097     0.0120     0.0421     0.0316     0.0471     0.0345     0.0491 </r>
        <r>    23.7058     0.0045     0.0075     0.0066     0.0099     0.0363     0.0327     0.0394     0.0385     0.0314 </r>
        <r>    23.8378     0.0028     0.0024     0.0024     0.0034     0.0157     0.0140     0.0248     0.0155     0.0115 </r>
        <r>    23.9699     0.0017     0.0036     0.0028     0.0042     0.0173     0.0140     0.0236     0.0150     0.0227 </r>
        <r>    24.1019     0.0016     0.0019     0.0014     0.0033     0.0073     0.0135     0.0059     0.0194     0.0106 </r>
        <r>    24.2339     0.0008     0.0010     0.0029     0.0010     0.0020     0.0042     0.0147     0.0026     0.0024 </r>
        <r>    24.3659     0.0008     0.0021     0.0011     0.0011     0.0067     0.0025     0.0010     0.0050     0.0073 </r>
        <r>    24.4979     0.0009     0.0019     0.0010     0.0010     0.0058     0.0026     0.0007     0.0047     0.0063 </r>
        <r>    24.6299     0.0007     0.0016     0.0017     0.0005     0.0030     0.0048     0.0039     0.0095     0.0072 </r>
        <r>    24.7620     0.0002     0.0004     0.0004     0.0001     0.0008     0.0013     0.0011     0.0024     0.0019 </r>
        <r>    24.8940     0.0001     0.0008     0.0008     0.0009     0.0021     0.0055     0.0073     0.0072     0.0044 </r>
        <r>    25.0260     0.0001     0.0003     0.0005     0.0005     0.0009     0.0023     0.0050     0.0049     0.0020 </r>
        <r>    25.1580     0.0000     0.0000     0.0000     0.0000     0.0000     0.0000     0.0000     0.0000     0.0000 </r>
        <r>    25.2900     0.0000     0.0000     0.0000     0.0000     0.0000     0.0000     0.0000     0.0000     0.0000 </r>
        <r>    25.4221     0.0000     0.0000     0.0000     0.0000     0.0000     0.0000     0.0000     0.0000     0.0000 </r>
        <r>    25.5541     0.0000     0.0000     0.0000     0.0000     0.0000     0.0000     0.0000     0.0000     0.0000 </r>
        <r>    25.6861     0.0001     0.0002     0.0000     0.0005     0.0013     0.0001     0.0113     0.0001     0.0005 </r>
        <r>    25.8181     0.0000     0.0001     0.0000     0.0001     0.0005     0.0003     0.0040     0.0004     0.0006 </r>
        <r>    25.9501     0.0001     0.0001     0.0003     0.0002     0.0022     0.0030     0.0073     0.0033     0.0059 </r>
        <r>    26.0821     0.0000     0.0000     0.0002     0.0000     0.0010     0.0017     0.0000     0.0016     0.0032 </r>
        <r>    26.2142     0.0000     0.0000     0.0000     0.0000     0.0000     0.0000     0.0000     0.0000     0.0000 </r>
        <r>    26.3462     0.0000     0.0001     0.0000     0.0002     0.0011     0.0022     0.0001     0.0040     0.0027 </r>
        <r>    26.4782     0.0000     0.0001     0.0000     0.0002     0.0012     0.0023     0.0003     0.0039     0.0031 </r>
        <r>    26.6102     0.0000     0.0000     0.0001     0.0001     0.0025     0.0028     0.0017     0.0028     0.0062 </r>
        <r>    26.7422     0.0000     0.0000     0.0000     0.0000     0.0000     0.0000     0.0000     0.0000     0.0001 </r>
        <r>    26.8742     0.0000     0.0000     0.0000     0.0000     0.0000     0.0000     0.0000     0.0000     0.0000 </r>
        <r>    27.0063     0.0000     0.0000     0.0000     0.0000     0.0000     0.0000     0.0000     0.0000     0.0000 </r>
        <r>    27.1383     0.0000     0.0000     0.0000     0.0000     0.0000     0.0000     0.0000     0.0000     0.0000 </r>
        <r>    27.2703     0.0000     0.0000     0.0000     0.0000     0.0000     0.0000     0.0000     0.0000     0.0000 </r>
        <r>    27.4023     0.0000     0.0000     0.0000     0.0000     0.0000     0.0000     0.0000     0.0000     0.0000 </r>
        <r>    27.5343     0.0000     0.0000     0.0000     0.0000     0.0000     0.0000     0.0000     0.0000     0.0000 </r>
        <r>    27.6663     0.0000     0.0000     0.0000     0.0000     0.0000     0.0000     0.0000     0.0000     0.0000 </r>
        <r>    27.7984     0.0000     0.0000     0.0000     0.0000     0.0000     0.0000     0.0000     0.0000     0.0000 </r>
        <r>    27.9304     0.0000     0.0000     0.0000     0.0000     0.0000     0.0000     0.0000     0.0000     0.0000 </r>
        <r>    28.0624     0.0000     0.0000     0.0000     0.0000     0.0000     0.0000     0.0000     0.0000     0.0000 </r>
        <r>    28.1944     0.0000     0.0000     0.0000     0.0000     0.0000     0.0000     0.0000     0.0000     0.0000 </r>
        <r>    28.3264     0.0000     0.0000     0.0000     0.0000     0.0000     0.0000     0.0000     0.0000     0.0000 </r>
       </set>
      </set>
      <set comment="ion 2">
       <set comment="spin 1">
        <r>   -11.2787     0.0000     0.0000     0.0000     0.0000     0.0000     0.0000     0.0000     0.0000     0.0000 </r>
        <r>   -11.1467     0.0000     0.0000     0.0000     0.0000     0.0000     0.0000     0.0000     0.0000     0.0000 </r>
        <r>   -11.0147     0.0000     0.0000     0.0000     0.0000     0.0000     0.0000     0.0000     0.0000     0.0000 </r>
        <r>   -10.8826     0.0000     0.0000     0.0000     0.0000     0.0000     0.0000     0.0000     0.0000     0.0000 </r>
        <r>   -10.7506     0.0000     0.0000     0.0000     0.0000     0.0000     0.0000     0.0000     0.0000     0.0000 </r>
        <r>   -10.6186     0.0000     0.0000     0.0000     0.0000     0.0000     0.0000     0.0000     0.0000     0.0000 </r>
        <r>   -10.4866     0.0000     0.0000     0.0000     0.0000     0.0000     0.0000     0.0000     0.0000     0.0000 </r>
        <r>   -10.3546     0.0000     0.0000     0.0000     0.0000     0.0000     0.0000     0.0000     0.0000     0.0000 </r>
        <r>   -10.2226     0.0000     0.0000     0.0000     0.0000     0.0000     0.0000     0.0000     0.0000     0.0000 </r>
        <r>   -10.0905     0.0000     0.0000     0.0000     0.0000     0.0000     0.0000     0.0000     0.0000     0.0000 </r>
        <r>    -9.9585     0.0000     0.0000     0.0000     0.0000     0.0000     0.0000     0.0000     0.0000     0.0000 </r>
        <r>    -9.8265     0.0000     0.0000     0.0000     0.0000     0.0000     0.0000     0.0000     0.0000     0.0000 </r>
        <r>    -9.6945     0.0000     0.0000     0.0000     0.0000     0.0000     0.0000     0.0000     0.0000     0.0000 </r>
        <r>    -9.5625     0.0001     0.0000     0.0000     0.0000     0.0000     0.0000     0.0000     0.0000     0.0000 </r>
        <r>    -9.4305     0.0109     0.0001     0.0000     0.0000     0.0000     0.0000     0.0000     0.0000     0.0000 </r>
        <r>    -9.2984     0.0844     0.0005     0.0001     0.0003     0.0000     0.0000     0.0000     0.0000     0.0000 </r>
        <r>    -9.1664     0.0646     0.0004     0.0002     0.0003     0.0000     0.0000     0.0000     0.0000     0.0000 </r>
        <r>    -9.0344     0.1880     0.0015     0.0006     0.0011     0.0000     0.0001     0.0000     0.0001     0.0000 </r>
        <r>    -8.9024     0.1422     0.0013     0.0006     0.0009     0.0000     0.0001     0.0000     0.0001     0.0000 </r>
        <r>    -8.7704     0.2033     0.0017     0.0016     0.0013     0.0000     0.0001     0.0000     0.0001     0.0000 </r>
        <r>    -8.6384     0.2331     0.0029     0.0007     0.0020     0.0001     0.0001     0.0001     0.0001     0.0000 </r>
        <r>    -8.5063     0.3437     0.0039     0.0023     0.0028     0.0001     0.0002     0.0001     0.0002     0.0001 </r>
        <r>    -8.3743     0.2886     0.0037     0.0024     0.0025     0.0001     0.0002     0.0001     0.0002     0.0001 </r>
        <r>    -8.2423     0.5265     0.0074     0.0032     0.0051     0.0002     0.0004     0.0001     0.0004     0.0001 </r>
        <r>    -8.1103     0.4919     0.0069     0.0036     0.0047     0.0002     0.0004     0.0001     0.0004     0.0001 </r>
        <r>    -7.9783     0.3681     0.0041     0.0038     0.0029     0.0001     0.0004     0.0001     0.0004     0.0001 </r>
        <r>    -7.8463     0.3169     0.0028     0.0054     0.0021     0.0001     0.0004     0.0000     0.0003     0.0001 </r>
        <r>    -7.7142     0.2838     0.0023     0.0050     0.0017     0.0001     0.0004     0.0000     0.0003     0.0001 </r>
        <r>    -7.5822     0.1665     0.0014     0.0033     0.0012     0.0000     0.0002     0.0000     0.0002     0.0001 </r>
        <r>    -7.4502     0.2888     0.0028     0.0054     0.0024     0.0001     0.0004     0.0000     0.0004     0.0001 </r>
        <r>    -7.3182     0.2221     0.0018     0.0050     0.0017     0.0001     0.0004     0.0000     0.0003     0.0001 </r>
        <r>    -7.1862     0.3639     0.0026     0.0089     0.0025     0.0001     0.0006     0.0000     0.0005     0.0001 </r>
        <r>    -7.0542     0.2291     0.0010     0.0064     0.0012     0.0001     0.0004     0.0000     0.0003     0.0001 </r>
        <r>    -6.9221     0.3398     0.0022     0.0070     0.0027     0.0001     0.0007     0.0000     0.0005     0.0002 </r>
        <r>    -6.7901     0.1587     0.0012     0.0028     0.0015     0.0001     0.0003     0.0000     0.0002     0.0001 </r>
        <r>    -6.6581     0.2467     0.0016     0.0053     0.0024     0.0001     0.0004     0.0000     0.0003     0.0001 </r>
        <r>    -6.5261     0.5546     0.0032     0.0154     0.0043     0.0002     0.0009     0.0000     0.0006     0.0003 </r>
        <r>    -6.3941     0.1866     0.0014     0.0044     0.0018     0.0001     0.0003     0.0000     0.0002     0.0001 </r>
        <r>    -6.2621     0.0599     0.0005     0.0013     0.0006     0.0000     0.0001     0.0000     0.0001     0.0000 </r>
        <r>    -6.1300     0.0715     0.0005     0.0017     0.0006     0.0000     0.0001     0.0000     0.0001     0.0000 </r>
        <r>    -5.9980     0.1497     0.0010     0.0034     0.0012     0.0001     0.0002     0.0000     0.0002     0.0001 </r>
        <r>    -5.8660     0.2180     0.0012     0.0068     0.0013     0.0001     0.0003     0.0000     0.0002     0.0001 </r>
        <r>    -5.7340     0.5148     0.0035     0.0104     0.0033     0.0002     0.0009     0.0000     0.0006     0.0003 </r>
        <r>    -5.6020     0.5839     0.0069     0.0066     0.0052     0.0002     0.0007     0.0000     0.0006     0.0003 </r>
        <r>    -5.4699     0.5419     0.0083     0.0049     0.0058     0.0001     0.0005     0.0000     0.0005     0.0002 </r>
        <r>    -5.3379     0.2495     0.0034     0.0034     0.0024     0.0001     0.0002     0.0000     0.0002     0.0001 </r>
        <r>    -5.2059     0.2717     0.0029     0.0058     0.0021     0.0001     0.0003     0.0000     0.0002     0.0001 </r>
        <r>    -5.0739     0.2418     0.0031     0.0044     0.0022     0.0001     0.0002     0.0000     0.0002     0.0001 </r>
        <r>    -4.9419     0.2105     0.0036     0.0012     0.0026     0.0000     0.0001     0.0000     0.0001     0.0000 </r>
        <r>    -4.8099     0.1081     0.0012     0.0016     0.0008     0.0000     0.0001     0.0000     0.0001     0.0000 </r>
        <r>    -4.6778     0.0733     0.0009     0.0011     0.0006     0.0000     0.0000     0.0000     0.0000     0.0000 </r>
        <r>    -4.5458     0.1118     0.0012     0.0018     0.0008     0.0000     0.0001     0.0000     0.0001     0.0000 </r>
        <r>    -4.4138     0.1711     0.0019     0.0021     0.0014     0.0000     0.0001     0.0000     0.0001     0.0000 </r>
        <r>    -4.2818     0.0570     0.0007     0.0003     0.0005     0.0000     0.0000     0.0000     0.0000     0.0000 </r>
        <r>    -4.1498     0.0069     0.0001     0.0000     0.0001     0.0000     0.0000     0.0000     0.0000     0.0000 </r>
        <r>    -4.0178     0.0861     0.0006     0.0009     0.0004     0.0000     0.0000     0.0000     0.0000     0.0000 </r>
        <r>    -3.8857     0.0440     0.0003     0.0001     0.0002     0.0000     0.0000     0.0000     0.0000     0.0000 </r>
        <r>    -3.7537     0.0231     0.0001     0.0001     0.0001     0.0000     0.0000     0.0000     0.0000     0.0000 </r>
        <r>    -3.6217     0.0070     0.0000     0.0000     0.0000     0.0000     0.0000     0.0000     0.0000     0.0000 </r>
        <r>    -3.4897     0.0011     0.0000     0.0000     0.0000     0.0000     0.0000     0.0000     0.0000     0.0000 </r>
        <r>    -3.3577     0.0000     0.0000     0.0000     0.0000     0.0000     0.0000     0.0000     0.0000     0.0000 </r>
        <r>    -3.2257     0.0000     0.0000     0.0000     0.0000     0.0000     0.0000     0.0000     0.0000     0.0000 </r>
        <r>    -3.0936     0.0000     0.0000     0.0000     0.0000     0.0000     0.0000     0.0000     0.0000     0.0000 </r>
        <r>    -2.9616     0.0000     0.0000     0.0000     0.0000     0.0000     0.0000     0.0000     0.0000     0.0000 </r>
        <r>    -2.8296     0.0000     0.0000     0.0000     0.0000     0.0000     0.0000     0.0000     0.0000     0.0000 </r>
        <r>    -2.6976     0.0000     0.0000     0.0000     0.0000     0.0000     0.0000     0.0000     0.0000     0.0000 </r>
        <r>    -2.5656     0.0000     0.0000     0.0000     0.0000     0.0000     0.0000     0.0000     0.0000     0.0000 </r>
        <r>    -2.4336     0.0000     0.0000     0.0000     0.0000     0.0000     0.0000     0.0000     0.0000     0.0000 </r>
        <r>    -2.3015     0.0000     0.0000     0.0000     0.0000     0.0000     0.0000     0.0000     0.0000     0.0000 </r>
        <r>    -2.1695     0.0000     0.0000     0.0000     0.0000     0.0000     0.0000     0.0000     0.0000     0.0000 </r>
        <r>    -2.0375     0.0000     0.0000     0.0000     0.0000     0.0000     0.0000     0.0000     0.0000     0.0000 </r>
        <r>    -1.9055     0.0000     0.0000     0.0000     0.0000     0.0000     0.0000     0.0000     0.0000     0.0000 </r>
        <r>    -1.7735     0.0000     0.0000     0.0000     0.0000     0.0000     0.0000     0.0000     0.0000     0.0000 </r>
        <r>    -1.6415     0.0000     0.0000     0.0000     0.0000     0.0000     0.0000     0.0000     0.0000     0.0000 </r>
        <r>    -1.5094     0.0000     0.0000     0.0000     0.0000     0.0000     0.0000     0.0000     0.0000     0.0000 </r>
        <r>    -1.3774     0.0000     0.0000     0.0000     0.0000     0.0000     0.0000     0.0000     0.0000     0.0000 </r>
        <r>    -1.2454     0.0000     0.0000     0.0000     0.0000     0.0000     0.0000     0.0000     0.0000     0.0000 </r>
        <r>    -1.1134     0.0000     0.0000     0.0000     0.0000     0.0000     0.0000     0.0000     0.0000     0.0000 </r>
        <r>    -0.9814     0.0000     0.0000     0.0000     0.0000     0.0000     0.0000     0.0000     0.0000     0.0000 </r>
        <r>    -0.8494     0.0000     0.0003     0.0004     0.0004     0.0000     0.0000     0.0000     0.0000     0.0000 </r>
        <r>    -0.7173     0.0002     0.0042     0.0045     0.0045     0.0000     0.0000     0.0000     0.0000     0.0000 </r>
        <r>    -0.5853     0.0017     0.0280     0.0309     0.0310     0.0001     0.0001     0.0000     0.0001     0.0001 </r>
        <r>    -0.4533     0.0015     0.0185     0.0208     0.0212     0.0001     0.0001     0.0000     0.0001     0.0001 </r>
        <r>    -0.3213     0.0058     0.0599     0.0671     0.0656     0.0003     0.0004     0.0001     0.0003     0.0003 </r>
        <r>    -0.1893     0.0030     0.0444     0.0505     0.0468     0.0002     0.0003     0.0001     0.0003     0.0003 </r>
        <r>    -0.0572     0.0070     0.0640     0.0707     0.0651     0.0003     0.0005     0.0003     0.0004     0.0004 </r>
        <r>     0.0748     0.0073     0.0913     0.1090     0.0856     0.0005     0.0010     0.0004     0.0007     0.0006 </r>
        <r>     0.2068     0.0061     0.0825     0.1232     0.0713     0.0005     0.0012     0.0004     0.0009     0.0005 </r>
        <r>     0.3388     0.0108     0.1023     0.1507     0.1003     0.0007     0.0015     0.0007     0.0011     0.0009 </r>
        <r>     0.4708     0.0088     0.0940     0.1715     0.0896     0.0007     0.0018     0.0005     0.0014     0.0009 </r>
        <r>     0.6028     0.0163     0.1314     0.2334     0.1289     0.0011     0.0028     0.0005     0.0022     0.0013 </r>
        <r>     0.7349     0.0086     0.0768     0.1556     0.0741     0.0006     0.0018     0.0007     0.0013     0.0006 </r>
        <r>     0.8669     0.0243     0.1321     0.2408     0.1348     0.0015     0.0029     0.0007     0.0021     0.0019 </r>
        <r>     0.9989     0.0138     0.0660     0.1229     0.0605     0.0007     0.0013     0.0003     0.0010     0.0009 </r>
        <r>     1.1309     0.0121     0.0552     0.1184     0.0518     0.0007     0.0012     0.0003     0.0009     0.0008 </r>
        <r>     1.2629     0.0168     0.0841     0.1390     0.0713     0.0009     0.0015     0.0006     0.0011     0.0010 </r>
        <r>     1.3949     0.0233     0.1535     0.1194     0.1338     0.0011     0.0017     0.0007     0.0014     0.0011 </r>
        <r>     1.5270     0.0251     0.1656     0.0927     0.1328     0.0010     0.0018     0.0008     0.0017     0.0008 </r>
        <r>     1.6590     0.0327     0.2110     0.1047     0.1711     0.0013     0.0024     0.0008     0.0022     0.0011 </r>
        <r>     1.7910     0.0169     0.1104     0.0412     0.0950     0.0006     0.0011     0.0004     0.0011     0.0005 </r>
        <r>     1.9230     0.0275     0.1289     0.0612     0.1117     0.0007     0.0018     0.0008     0.0018     0.0006 </r>
        <r>     2.0550     0.0240     0.1212     0.0554     0.1048     0.0008     0.0017     0.0007     0.0016     0.0007 </r>
        <r>     2.1870     0.0282     0.1783     0.0647     0.1497     0.0011     0.0020     0.0007     0.0019     0.0009 </r>
        <r>     2.3191     0.0141     0.0835     0.0362     0.0723     0.0004     0.0013     0.0006     0.0011     0.0003 </r>
        <r>     2.4511     0.0156     0.0817     0.0451     0.0686     0.0004     0.0014     0.0005     0.0013     0.0004 </r>
        <r>     2.5831     0.0185     0.0880     0.0608     0.0859     0.0007     0.0021     0.0007     0.0019     0.0006 </r>
        <r>     2.7151     0.0193     0.0805     0.0617     0.0937     0.0006     0.0020     0.0007     0.0020     0.0006 </r>
        <r>     2.8471     0.0159     0.0777     0.0611     0.0900     0.0006     0.0020     0.0009     0.0018     0.0005 </r>
        <r>     2.9791     0.0155     0.0604     0.0499     0.0697     0.0008     0.0017     0.0004     0.0015     0.0008 </r>
        <r>     3.1112     0.0358     0.1492     0.1370     0.1799     0.0017     0.0046     0.0012     0.0041     0.0015 </r>
        <r>     3.2432     0.0160     0.0829     0.0891     0.1085     0.0010     0.0026     0.0006     0.0021     0.0010 </r>
        <r>     3.3752     0.0195     0.0789     0.0715     0.1045     0.0011     0.0020     0.0007     0.0017     0.0011 </r>
        <r>     3.5072     0.0233     0.0847     0.0919     0.1106     0.0014     0.0026     0.0009     0.0021     0.0014 </r>
        <r>     3.6392     0.0320     0.1343     0.1015     0.1670     0.0017     0.0031     0.0012     0.0029     0.0015 </r>
        <r>     3.7712     0.0451     0.1807     0.1392     0.2252     0.0025     0.0052     0.0016     0.0045     0.0023 </r>
        <r>     3.9033     0.0383     0.1610     0.1469     0.2288     0.0022     0.0047     0.0015     0.0040     0.0020 </r>
        <r>     4.0353     0.0219     0.0895     0.0736     0.1254     0.0016     0.0020     0.0010     0.0016     0.0014 </r>
        <r>     4.1673     0.0250     0.1441     0.0987     0.1716     0.0022     0.0037     0.0013     0.0030     0.0018 </r>
        <r>     4.2993     0.0325     0.1800     0.1182     0.2086     0.0027     0.0044     0.0013     0.0038     0.0022 </r>
        <r>     4.4313     0.0366     0.1731     0.0982     0.2200     0.0017     0.0048     0.0016     0.0041     0.0017 </r>
        <r>     4.5634     0.0260     0.1155     0.0759     0.1533     0.0010     0.0036     0.0011     0.0030     0.0010 </r>
        <r>     4.6954     0.0188     0.0922     0.0569     0.1273     0.0009     0.0032     0.0010     0.0023     0.0010 </r>
        <r>     4.8274     0.0091     0.0356     0.0181     0.0472     0.0004     0.0009     0.0005     0.0007     0.0003 </r>
        <r>     4.9594     0.0219     0.0834     0.0408     0.1105     0.0005     0.0028     0.0011     0.0021     0.0005 </r>
        <r>     5.0914     0.0135     0.0514     0.0226     0.0686     0.0003     0.0017     0.0007     0.0012     0.0003 </r>
        <r>     5.2234     0.0026     0.0088     0.0040     0.0119     0.0000     0.0003     0.0001     0.0003     0.0000 </r>
        <r>     5.3555     0.0029     0.0110     0.0013     0.0128     0.0000     0.0001     0.0001     0.0002     0.0000 </r>
        <r>     5.4875     0.0000     0.0000     0.0000     0.0000     0.0000     0.0000     0.0000     0.0000     0.0000 </r>
        <r>     5.6195     0.0000     0.0000     0.0000     0.0000     0.0000     0.0000     0.0000     0.0000     0.0000 </r>
        <r>     5.7515     0.0000     0.0000     0.0000     0.0000     0.0000     0.0000     0.0000     0.0000     0.0000 </r>
        <r>     5.8835     0.0000     0.0000     0.0000     0.0000     0.0000     0.0000     0.0000     0.0000     0.0000 </r>
        <r>     6.0155     0.0000     0.0000     0.0000     0.0000     0.0000     0.0000     0.0000     0.0000     0.0000 </r>
        <r>     6.1476     0.0010     0.0033     0.0016     0.0024     0.0001     0.0001     0.0001     0.0001     0.0001 </r>
        <r>     6.2796     0.0110     0.0372     0.0143     0.0296     0.0007     0.0010     0.0012     0.0008     0.0006 </r>
        <r>     6.4116     0.0375     0.1220     0.0637     0.1104     0.0023     0.0042     0.0026     0.0035     0.0025 </r>
        <r>     6.5436     0.0554     0.2029     0.1115     0.1623     0.0031     0.0064     0.0057     0.0061     0.0032 </r>
        <r>     6.6756     0.0512     0.2224     0.1369     0.1774     0.0042     0.0087     0.0051     0.0077     0.0048 </r>
        <r>     6.8076     0.0353     0.1635     0.1161     0.1240     0.0031     0.0059     0.0036     0.0057     0.0035 </r>
        <r>     6.9397     0.0303     0.1203     0.1094     0.0968     0.0026     0.0046     0.0023     0.0042     0.0031 </r>
        <r>     7.0717     0.0264     0.1492     0.1304     0.1195     0.0031     0.0056     0.0042     0.0057     0.0033 </r>
        <r>     7.2037     0.0322     0.1928     0.2582     0.1498     0.0047     0.0097     0.0053     0.0101     0.0054 </r>
        <r>     7.3357     0.0154     0.0961     0.2378     0.0818     0.0038     0.0067     0.0023     0.0062     0.0048 </r>
        <r>     7.4677     0.0147     0.1124     0.1944     0.1030     0.0035     0.0066     0.0022     0.0063     0.0039 </r>
        <r>     7.5997     0.0166     0.1216     0.1894     0.1091     0.0032     0.0065     0.0031     0.0063     0.0035 </r>
        <r>     7.7318     0.0180     0.1516     0.2767     0.1361     0.0049     0.0081     0.0043     0.0080     0.0055 </r>
        <r>     7.8638     0.0140     0.1130     0.1946     0.1065     0.0030     0.0064     0.0035     0.0062     0.0034 </r>
        <r>     7.9958     0.0083     0.0837     0.1326     0.0740     0.0027     0.0035     0.0025     0.0036     0.0028 </r>
        <r>     8.1278     0.0085     0.1113     0.2032     0.0964     0.0035     0.0059     0.0034     0.0057     0.0035 </r>
        <r>     8.2598     0.0088     0.1057     0.1719     0.0942     0.0028     0.0048     0.0031     0.0046     0.0029 </r>
        <r>     8.3918     0.0051     0.0680     0.1020     0.0655     0.0015     0.0027     0.0018     0.0025     0.0016 </r>
        <r>     8.5239     0.0034     0.0688     0.0933     0.0668     0.0014     0.0025     0.0017     0.0023     0.0016 </r>
        <r>     8.6559     0.0033     0.0375     0.0484     0.0374     0.0011     0.0010     0.0006     0.0009     0.0011 </r>
        <r>     8.7879     0.0058     0.0922     0.1215     0.0917     0.0022     0.0031     0.0026     0.0030     0.0023 </r>
        <r>     8.9199     0.0019     0.0347     0.0460     0.0364     0.0011     0.0014     0.0010     0.0014     0.0012 </r>
        <r>     9.0519     0.0016     0.0235     0.0261     0.0220     0.0043     0.0023     0.0051     0.0032     0.0047 </r>
        <r>     9.1839     0.0005     0.0148     0.0182     0.0152     0.0011     0.0006     0.0012     0.0008     0.0012 </r>
        <r>     9.3160     0.0027     0.0666     0.0785     0.0597     0.0024     0.0015     0.0023     0.0018     0.0024 </r>
        <r>     9.4480     0.0014     0.0175     0.0139     0.0168     0.0082     0.0038     0.0103     0.0054     0.0090 </r>
        <r>     9.5800     0.0008     0.0127     0.0098     0.0125     0.0060     0.0026     0.0075     0.0036     0.0065 </r>
        <r>     9.7120     0.0010     0.0142     0.0097     0.0153     0.0094     0.0040     0.0118     0.0057     0.0101 </r>
        <r>     9.8440     0.0009     0.0127     0.0082     0.0131     0.0084     0.0035     0.0100     0.0044     0.0089 </r>
        <r>     9.9761     0.0006     0.0072     0.0049     0.0082     0.0052     0.0022     0.0082     0.0025     0.0052 </r>
        <r>    10.1081     0.0016     0.0137     0.0102     0.0163     0.0153     0.0065     0.0295     0.0075     0.0143 </r>
        <r>    10.2401     0.0014     0.0143     0.0127     0.0168     0.0136     0.0060     0.0271     0.0068     0.0144 </r>
        <r>    10.3721     0.0020     0.0139     0.0087     0.0133     0.0150     0.0071     0.0283     0.0084     0.0127 </r>
        <r>    10.5041     0.0023     0.0209     0.0204     0.0233     0.0222     0.0115     0.0253     0.0106     0.0208 </r>
        <r>    10.6361     0.0022     0.0159     0.0187     0.0185     0.0195     0.0104     0.0219     0.0092     0.0187 </r>
        <r>    10.7682     0.0013     0.0084     0.0101     0.0108     0.0122     0.0070     0.0174     0.0055     0.0117 </r>
        <r>    10.9002     0.0029     0.0141     0.0149     0.0171     0.0183     0.0088     0.0249     0.0077     0.0203 </r>
        <r>    11.0322     0.0024     0.0117     0.0077     0.0149     0.0153     0.0088     0.0185     0.0084     0.0165 </r>
        <r>    11.1642     0.0024     0.0091     0.0050     0.0107     0.0159     0.0080     0.0212     0.0091     0.0177 </r>
        <r>    11.2962     0.0022     0.0078     0.0079     0.0090     0.0110     0.0065     0.0303     0.0076     0.0107 </r>
        <r>    11.4282     0.0017     0.0089     0.0197     0.0135     0.0216     0.0139     0.0268     0.0143     0.0205 </r>
        <r>    11.5603     0.0014     0.0071     0.0116     0.0099     0.0197     0.0125     0.0243     0.0139     0.0186 </r>
        <r>    11.6923     0.0022     0.0084     0.0093     0.0100     0.0147     0.0086     0.0177     0.0090     0.0142 </r>
        <r>    11.8243     0.0051     0.0157     0.0121     0.0158     0.0265     0.0164     0.0313     0.0173     0.0271 </r>
        <r>    11.9563     0.0047     0.0088     0.0054     0.0102     0.0147     0.0090     0.0203     0.0096     0.0139 </r>
        <r>    12.0883     0.0089     0.0201     0.0205     0.0228     0.0312     0.0257     0.0327     0.0249     0.0293 </r>
        <r>    12.2203     0.0099     0.0199     0.0099     0.0202     0.0224     0.0150     0.0143     0.0150     0.0229 </r>
        <r>    12.3524     0.0119     0.0222     0.0257     0.0204     0.0452     0.0345     0.0342     0.0385     0.0455 </r>
        <r>    12.4844     0.0187     0.0205     0.0287     0.0227     0.0413     0.0352     0.0507     0.0337     0.0420 </r>
        <r>    12.6164     0.0115     0.0168     0.0122     0.0144     0.0176     0.0175     0.0182     0.0158     0.0169 </r>
        <r>    12.7484     0.0070     0.0100     0.0062     0.0097     0.0176     0.0162     0.0163     0.0155     0.0143 </r>
        <r>    12.8804     0.0148     0.0146     0.0114     0.0140     0.0219     0.0220     0.0328     0.0199     0.0203 </r>
        <r>    13.0124     0.0153     0.0131     0.0145     0.0118     0.0172     0.0164     0.0170     0.0190     0.0174 </r>
        <r>    13.1445     0.0245     0.0179     0.0240     0.0192     0.0243     0.0318     0.0290     0.0305     0.0241 </r>
        <r>    13.2765     0.0267     0.0347     0.0333     0.0353     0.0424     0.0488     0.0589     0.0511     0.0462 </r>
        <r>    13.4085     0.0182     0.0251     0.0252     0.0264     0.0391     0.0321     0.0265     0.0327     0.0382 </r>
        <r>    13.5405     0.0171     0.0222     0.0262     0.0251     0.0326     0.0259     0.0234     0.0273     0.0334 </r>
        <r>    13.6725     0.0165     0.0245     0.0182     0.0222     0.0371     0.0383     0.0268     0.0409     0.0386 </r>
        <r>    13.8045     0.0167     0.0298     0.0260     0.0307     0.0409     0.0404     0.0248     0.0454     0.0457 </r>
        <r>    13.9366     0.0164     0.0237     0.0139     0.0233     0.0285     0.0255     0.0378     0.0288     0.0290 </r>
        <r>    14.0686     0.0173     0.0360     0.0218     0.0353     0.0389     0.0402     0.0363     0.0442     0.0364 </r>
        <r>    14.2006     0.0276     0.0292     0.0288     0.0250     0.0485     0.0395     0.0324     0.0427     0.0469 </r>
        <r>    14.3326     0.0234     0.0330     0.0313     0.0315     0.0434     0.0585     0.0319     0.0592     0.0430 </r>
        <r>    14.4646     0.0264     0.0308     0.0159     0.0281     0.0379     0.0533     0.0257     0.0585     0.0402 </r>
        <r>    14.5966     0.0157     0.0371     0.0237     0.0347     0.0445     0.0457     0.0232     0.0537     0.0471 </r>
        <r>    14.7287     0.0215     0.0390     0.0328     0.0349     0.0469     0.0414     0.0432     0.0431     0.0502 </r>
        <r>    14.8607     0.0304     0.0306     0.0224     0.0281     0.0438     0.0421     0.0529     0.0454     0.0462 </r>
        <r>    14.9927     0.0144     0.0195     0.0182     0.0192     0.0370     0.0325     0.0247     0.0335     0.0344 </r>
        <r>    15.1247     0.0274     0.0403     0.0347     0.0410     0.0645     0.0703     0.0542     0.0713     0.0592 </r>
        <r>    15.2567     0.0309     0.0449     0.0297     0.0461     0.0756     0.0776     0.0700     0.0801     0.0688 </r>
        <r>    15.3888     0.0158     0.0246     0.0188     0.0245     0.0424     0.0487     0.0388     0.0496     0.0425 </r>
        <r>    15.5208     0.0183     0.0266     0.0220     0.0276     0.0480     0.0491     0.0519     0.0502     0.0489 </r>
        <r>    15.6528     0.0199     0.0214     0.0249     0.0201     0.0466     0.0419     0.0445     0.0423     0.0450 </r>
        <r>    15.7848     0.0213     0.0170     0.0214     0.0161     0.0318     0.0447     0.0333     0.0450     0.0335 </r>
        <r>    15.9168     0.0211     0.0209     0.0146     0.0223     0.0456     0.0528     0.0329     0.0556     0.0445 </r>
        <r>    16.0488     0.0203     0.0238     0.0163     0.0254     0.0578     0.0460     0.0530     0.0424     0.0527 </r>
        <r>    16.1809     0.0160     0.0228     0.0184     0.0229     0.0389     0.0502     0.0399     0.0454     0.0364 </r>
        <r>    16.3129     0.0125     0.0274     0.0181     0.0258     0.0398     0.0497     0.0472     0.0512     0.0389 </r>
        <r>    16.4449     0.0306     0.0365     0.0309     0.0340     0.0637     0.0692     0.0535     0.0766     0.0634 </r>
        <r>    16.5769     0.0249     0.0288     0.0322     0.0288     0.0610     0.0854     0.0654     0.0877     0.0591 </r>
        <r>    16.7089     0.0143     0.0213     0.0194     0.0220     0.0332     0.0435     0.0439     0.0491     0.0310 </r>
        <r>    16.8409     0.0165     0.0264     0.0169     0.0224     0.0599     0.0486     0.0577     0.0504     0.0483 </r>
        <r>    16.9730     0.0283     0.0367     0.0301     0.0314     0.0714     0.0805     0.0727     0.0805     0.0658 </r>
        <r>    17.1050     0.0296     0.0285     0.0283     0.0254     0.0658     0.0692     0.0536     0.0674     0.0649 </r>
        <r>    17.2370     0.0118     0.0111     0.0119     0.0109     0.0379     0.0356     0.0198     0.0339     0.0359 </r>
        <r>    17.3690     0.0159     0.0241     0.0324     0.0250     0.0751     0.0620     0.0678     0.0555     0.0725 </r>
        <r>    17.5010     0.0266     0.0321     0.0429     0.0351     0.0940     0.0775     0.0631     0.0727     0.0960 </r>
        <r>    17.6330     0.0187     0.0221     0.0269     0.0244     0.0455     0.0627     0.0418     0.0585     0.0497 </r>
        <r>    17.7651     0.0169     0.0216     0.0285     0.0241     0.0674     0.0560     0.0602     0.0574     0.0600 </r>
        <r>    17.8971     0.0269     0.0290     0.0299     0.0267     0.0700     0.0797     0.0700     0.0818     0.0692 </r>
        <r>    18.0291     0.0253     0.0263     0.0236     0.0266     0.0705     0.0676     0.0709     0.0663     0.0654 </r>
        <r>    18.1611     0.0187     0.0304     0.0295     0.0315     0.0887     0.0700     0.0873     0.0623     0.0802 </r>
        <r>    18.2931     0.0208     0.0294     0.0336     0.0306     0.0839     0.0928     0.0735     0.0862     0.0844 </r>
        <r>    18.4251     0.0207     0.0236     0.0252     0.0262     0.0763     0.0722     0.0676     0.0689     0.0755 </r>
        <r>    18.5572     0.0089     0.0126     0.0154     0.0131     0.0366     0.0381     0.0338     0.0311     0.0401 </r>
        <r>    18.6892     0.0179     0.0196     0.0250     0.0194     0.0618     0.0640     0.0476     0.0579     0.0607 </r>
        <r>    18.8212     0.0223     0.0261     0.0198     0.0266     0.0611     0.0723     0.0739     0.0757     0.0626 </r>
        <r>    18.9532     0.0264     0.0429     0.0375     0.0459     0.0841     0.1037     0.0789     0.0927     0.0881 </r>
        <r>    19.0852     0.0155     0.0155     0.0191     0.0155     0.0398     0.0542     0.0412     0.0499     0.0476 </r>
        <r>    19.2172     0.0247     0.0190     0.0236     0.0184     0.0634     0.0644     0.0563     0.0616     0.0629 </r>
        <r>    19.3493     0.0225     0.0296     0.0377     0.0318     0.0810     0.0904     0.1056     0.0821     0.0814 </r>
        <r>    19.4813     0.0184     0.0231     0.0260     0.0297     0.0627     0.0693     0.0639     0.0635     0.0711 </r>
        <r>    19.6133     0.0203     0.0271     0.0248     0.0268     0.0549     0.0655     0.0607     0.0691     0.0609 </r>
        <r>    19.7453     0.0211     0.0337     0.0377     0.0369     0.0749     0.0808     0.0947     0.0786     0.0758 </r>
        <r>    19.8773     0.0217     0.0375     0.0430     0.0398     0.0859     0.1070     0.1004     0.1005     0.0896 </r>
        <r>    20.0093     0.0177     0.0238     0.0300     0.0218     0.0561     0.0634     0.0818     0.0579     0.0513 </r>
        <r>    20.1414     0.0117     0.0284     0.0270     0.0281     0.0614     0.0690     0.0917     0.0679     0.0641 </r>
        <r>    20.2734     0.0122     0.0257     0.0187     0.0267     0.0711     0.0481     0.0816     0.0503     0.0769 </r>
        <r>    20.4054     0.0167     0.0328     0.0345     0.0332     0.0836     0.0906     0.0878     0.0874     0.0883 </r>
        <r>    20.5374     0.0190     0.0366     0.0372     0.0325     0.1038     0.0902     0.0996     0.0911     0.1042 </r>
        <r>    20.6694     0.0140     0.0287     0.0214     0.0260     0.0699     0.0565     0.0995     0.0550     0.0721 </r>
        <r>    20.8015     0.0132     0.0331     0.0286     0.0310     0.0836     0.0780     0.0770     0.0790     0.0807 </r>
        <r>    20.9335     0.0143     0.0308     0.0291     0.0291     0.0922     0.0764     0.0691     0.0791     0.0902 </r>
        <r>    21.0655     0.0152     0.0300     0.0261     0.0295     0.0747     0.0748     0.0851     0.0782     0.0759 </r>
        <r>    21.1975     0.0147     0.0189     0.0166     0.0187     0.0557     0.0468     0.0560     0.0473     0.0563 </r>
        <r>    21.3295     0.0215     0.0346     0.0316     0.0328     0.1091     0.0785     0.1028     0.0758     0.1087 </r>
        <r>    21.4615     0.0206     0.0359     0.0302     0.0355     0.0939     0.0982     0.0933     0.0909     0.0953 </r>
        <r>    21.5936     0.0131     0.0200     0.0221     0.0215     0.0485     0.0579     0.0509     0.0585     0.0525 </r>
        <r>    21.7256     0.0122     0.0159     0.0189     0.0185     0.0534     0.0592     0.0406     0.0603     0.0561 </r>
        <r>    21.8576     0.0154     0.0199     0.0285     0.0230     0.0951     0.0907     0.0987     0.0860     0.0975 </r>
        <r>    21.9896     0.0175     0.0251     0.0257     0.0247     0.0826     0.0857     0.0776     0.0823     0.0893 </r>
        <r>    22.1216     0.0166     0.0250     0.0262     0.0248     0.0934     0.0953     0.0849     0.0952     0.1019 </r>
        <r>    22.2536     0.0110     0.0263     0.0264     0.0274     0.0824     0.0983     0.1125     0.0917     0.0935 </r>
        <r>    22.3857     0.0134     0.0186     0.0270     0.0197     0.0823     0.0857     0.0881     0.0921     0.0845 </r>
        <r>    22.5177     0.0138     0.0202     0.0275     0.0224     0.0904     0.0808     0.0945     0.0825     0.0923 </r>
        <r>    22.6497     0.0134     0.0204     0.0251     0.0203     0.0719     0.0980     0.0642     0.1076     0.0751 </r>
        <r>    22.7817     0.0127     0.0201     0.0222     0.0198     0.0863     0.0933     0.0868     0.0958     0.0816 </r>
        <r>    22.9137     0.0084     0.0116     0.0110     0.0102     0.0576     0.0646     0.0598     0.0662     0.0632 </r>
        <r>    23.0457     0.0050     0.0104     0.0053     0.0095     0.0417     0.0325     0.0434     0.0384     0.0435 </r>
        <r>    23.1778     0.0073     0.0157     0.0136     0.0148     0.0584     0.0497     0.0428     0.0533     0.0534 </r>
        <r>    23.3098     0.0021     0.0050     0.0025     0.0050     0.0208     0.0131     0.0158     0.0130     0.0202 </r>
        <r>    23.4418     0.0054     0.0115     0.0077     0.0125     0.0505     0.0337     0.0566     0.0346     0.0502 </r>
        <r>    23.5738     0.0079     0.0115     0.0097     0.0106     0.0473     0.0338     0.0471     0.0323     0.0438 </r>
        <r>    23.7058     0.0045     0.0093     0.0066     0.0081     0.0326     0.0371     0.0394     0.0342     0.0351 </r>
        <r>    23.8378     0.0028     0.0032     0.0024     0.0027     0.0125     0.0151     0.0248     0.0144     0.0146 </r>
        <r>    23.9699     0.0017     0.0040     0.0028     0.0037     0.0213     0.0147     0.0236     0.0142     0.0187 </r>
        <r>    24.1019     0.0016     0.0029     0.0014     0.0023     0.0098     0.0180     0.0059     0.0150     0.0081 </r>
        <r>    24.2339     0.0008     0.0010     0.0029     0.0010     0.0023     0.0030     0.0147     0.0038     0.0021 </r>
        <r>    24.3659     0.0008     0.0013     0.0011     0.0019     0.0072     0.0044     0.0010     0.0032     0.0068 </r>
        <r>    24.4979     0.0009     0.0013     0.0010     0.0017     0.0062     0.0042     0.0007     0.0031     0.0059 </r>
        <r>    24.6299     0.0007     0.0008     0.0017     0.0014     0.0062     0.0084     0.0039     0.0060     0.0040 </r>
        <r>    24.7620     0.0002     0.0002     0.0004     0.0004     0.0016     0.0022     0.0011     0.0016     0.0011 </r>
        <r>    24.8940     0.0001     0.0009     0.0008     0.0008     0.0039     0.0068     0.0073     0.0059     0.0027 </r>
        <r>    25.0260     0.0001     0.0004     0.0005     0.0004     0.0017     0.0042     0.0050     0.0029     0.0011 </r>
        <r>    25.1580     0.0000     0.0000     0.0000     0.0000     0.0000     0.0000     0.0000     0.0000     0.0000 </r>
        <r>    25.2900     0.0000     0.0000     0.0000     0.0000     0.0000     0.0000     0.0000     0.0000     0.0000 </r>
        <r>    25.4221     0.0000     0.0000     0.0000     0.0000     0.0000     0.0000     0.0000     0.0000     0.0000 </r>
        <r>    25.5541     0.0000     0.0000     0.0000     0.0000     0.0000     0.0000     0.0000     0.0000     0.0000 </r>
        <r>    25.6861     0.0001     0.0004     0.0000     0.0003     0.0007     0.0001     0.0113     0.0001     0.0011 </r>
        <r>    25.8181     0.0000     0.0001     0.0000     0.0001     0.0006     0.0004     0.0040     0.0003     0.0005 </r>
        <r>    25.9501     0.0001     0.0002     0.0003     0.0002     0.0050     0.0032     0.0073     0.0031     0.0031 </r>
        <r>    26.0821     0.0000     0.0000     0.0002     0.0000     0.0026     0.0017     0.0000     0.0017     0.0016 </r>
        <r>    26.2142     0.0000     0.0000     0.0000     0.0000     0.0000     0.0000     0.0000     0.0000     0.0000 </r>
        <r>    26.3462     0.0000     0.0002     0.0000     0.0002     0.0023     0.0036     0.0001     0.0026     0.0015 </r>
        <r>    26.4782     0.0000     0.0002     0.0000     0.0002     0.0027     0.0035     0.0003     0.0027     0.0017 </r>
        <r>    26.6102     0.0000     0.0001     0.0001     0.0000     0.0053     0.0028     0.0017     0.0028     0.0034 </r>
        <r>    26.7422     0.0000     0.0000     0.0000     0.0000     0.0000     0.0000     0.0000     0.0000     0.0000 </r>
        <r>    26.8742     0.0000     0.0000     0.0000     0.0000     0.0000     0.0000     0.0000     0.0000     0.0000 </r>
        <r>    27.0063     0.0000     0.0000     0.0000     0.0000     0.0000     0.0000     0.0000     0.0000     0.0000 </r>
        <r>    27.1383     0.0000     0.0000     0.0000     0.0000     0.0000     0.0000     0.0000     0.0000     0.0000 </r>
        <r>    27.2703     0.0000     0.0000     0.0000     0.0000     0.0000     0.0000     0.0000     0.0000     0.0000 </r>
        <r>    27.4023     0.0000     0.0000     0.0000     0.0000     0.0000     0.0000     0.0000     0.0000     0.0000 </r>
        <r>    27.5343     0.0000     0.0000     0.0000     0.0000     0.0000     0.0000     0.0000     0.0000     0.0000 </r>
        <r>    27.6663     0.0000     0.0000     0.0000     0.0000     0.0000     0.0000     0.0000     0.0000     0.0000 </r>
        <r>    27.7984     0.0000     0.0000     0.0000     0.0000     0.0000     0.0000     0.0000     0.0000     0.0000 </r>
        <r>    27.9304     0.0000     0.0000     0.0000     0.0000     0.0000     0.0000     0.0000     0.0000     0.0000 </r>
        <r>    28.0624     0.0000     0.0000     0.0000     0.0000     0.0000     0.0000     0.0000     0.0000     0.0000 </r>
        <r>    28.1944     0.0000     0.0000     0.0000     0.0000     0.0000     0.0000     0.0000     0.0000     0.0000 </r>
        <r>    28.3264     0.0000     0.0000     0.0000     0.0000     0.0000     0.0000     0.0000     0.0000     0.0000 </r>
       </set>
      </set>
      <set comment="ion 3">
       <set comment="spin 1">
        <r>   -11.2787     0.0000     0.0000     0.0000     0.0000     0.0000     0.0000     0.0000     0.0000     0.0000 </r>
        <r>   -11.1467     0.0000     0.0000     0.0000     0.0000     0.0000     0.0000     0.0000     0.0000     0.0000 </r>
        <r>   -11.0147     0.0000     0.0000     0.0000     0.0000     0.0000     0.0000     0.0000     0.0000     0.0000 </r>
        <r>   -10.8826     0.0000     0.0000     0.0000     0.0000     0.0000     0.0000     0.0000     0.0000     0.0000 </r>
        <r>   -10.7506     0.0000     0.0000     0.0000     0.0000     0.0000     0.0000     0.0000     0.0000     0.0000 </r>
        <r>   -10.6186     0.0000     0.0000     0.0000     0.0000     0.0000     0.0000     0.0000     0.0000     0.0000 </r>
        <r>   -10.4866     0.0000     0.0000     0.0000     0.0000     0.0000     0.0000     0.0000     0.0000     0.0000 </r>
        <r>   -10.3546     0.0000     0.0000     0.0000     0.0000     0.0000     0.0000     0.0000     0.0000     0.0000 </r>
        <r>   -10.2226     0.0000     0.0000     0.0000     0.0000     0.0000     0.0000     0.0000     0.0000     0.0000 </r>
        <r>   -10.0905     0.0000     0.0000     0.0000     0.0000     0.0000     0.0000     0.0000     0.0000     0.0000 </r>
        <r>    -9.9585     0.0000     0.0000     0.0000     0.0000     0.0000     0.0000     0.0000     0.0000     0.0000 </r>
        <r>    -9.8265     0.0000     0.0000     0.0000     0.0000     0.0000     0.0000     0.0000     0.0000     0.0000 </r>
        <r>    -9.6945     0.0000     0.0000     0.0000     0.0000     0.0000     0.0000     0.0000     0.0000     0.0000 </r>
        <r>    -9.5625     0.0001     0.0000     0.0000     0.0000     0.0000     0.0000     0.0000     0.0000     0.0000 </r>
        <r>    -9.4305     0.0109     0.0001     0.0000     0.0000     0.0000     0.0000     0.0000     0.0000     0.0000 </r>
        <r>    -9.2984     0.0844     0.0005     0.0001     0.0003     0.0000     0.0000     0.0000     0.0000     0.0000 </r>
        <r>    -9.1664     0.0646     0.0004     0.0002     0.0003     0.0000     0.0000     0.0000     0.0000     0.0000 </r>
        <r>    -9.0344     0.1880     0.0015     0.0006     0.0011     0.0000     0.0001     0.0000     0.0001     0.0000 </r>
        <r>    -8.9024     0.1422     0.0013     0.0006     0.0009     0.0000     0.0001     0.0000     0.0001     0.0000 </r>
        <r>    -8.7704     0.2033     0.0017     0.0016     0.0013     0.0000     0.0001     0.0000     0.0001     0.0000 </r>
        <r>    -8.6384     0.2331     0.0029     0.0007     0.0020     0.0001     0.0001     0.0001     0.0001     0.0000 </r>
        <r>    -8.5063     0.3437     0.0039     0.0023     0.0028     0.0001     0.0002     0.0001     0.0002     0.0001 </r>
        <r>    -8.3743     0.2886     0.0037     0.0024     0.0025     0.0001     0.0002     0.0001     0.0002     0.0001 </r>
        <r>    -8.2423     0.5265     0.0074     0.0032     0.0051     0.0002     0.0004     0.0001     0.0004     0.0001 </r>
        <r>    -8.1103     0.4919     0.0069     0.0036     0.0047     0.0002     0.0004     0.0001     0.0004     0.0001 </r>
        <r>    -7.9783     0.3681     0.0041     0.0038     0.0029     0.0001     0.0004     0.0001     0.0004     0.0001 </r>
        <r>    -7.8463     0.3169     0.0028     0.0054     0.0021     0.0001     0.0004     0.0000     0.0003     0.0001 </r>
        <r>    -7.7142     0.2838     0.0023     0.0050     0.0017     0.0001     0.0004     0.0000     0.0003     0.0001 </r>
        <r>    -7.5822     0.1665     0.0014     0.0033     0.0012     0.0000     0.0002     0.0000     0.0002     0.0001 </r>
        <r>    -7.4502     0.2888     0.0028     0.0054     0.0024     0.0001     0.0004     0.0000     0.0004     0.0001 </r>
        <r>    -7.3182     0.2221     0.0018     0.0050     0.0017     0.0001     0.0004     0.0000     0.0003     0.0001 </r>
        <r>    -7.1862     0.3639     0.0026     0.0089     0.0025     0.0001     0.0006     0.0000     0.0005     0.0001 </r>
        <r>    -7.0542     0.2291     0.0010     0.0064     0.0012     0.0001     0.0004     0.0000     0.0003     0.0001 </r>
        <r>    -6.9221     0.3398     0.0022     0.0070     0.0027     0.0001     0.0007     0.0000     0.0005     0.0002 </r>
        <r>    -6.7901     0.1587     0.0012     0.0028     0.0015     0.0001     0.0003     0.0000     0.0002     0.0001 </r>
        <r>    -6.6581     0.2467     0.0016     0.0053     0.0024     0.0001     0.0004     0.0000     0.0003     0.0001 </r>
        <r>    -6.5261     0.5546     0.0032     0.0154     0.0043     0.0002     0.0009     0.0000     0.0006     0.0003 </r>
        <r>    -6.3941     0.1866     0.0014     0.0044     0.0018     0.0001     0.0003     0.0000     0.0002     0.0001 </r>
        <r>    -6.2621     0.0599     0.0005     0.0013     0.0006     0.0000     0.0001     0.0000     0.0001     0.0000 </r>
        <r>    -6.1300     0.0715     0.0005     0.0017     0.0006     0.0000     0.0001     0.0000     0.0001     0.0000 </r>
        <r>    -5.9980     0.1497     0.0010     0.0034     0.0012     0.0001     0.0002     0.0000     0.0002     0.0001 </r>
        <r>    -5.8660     0.2180     0.0012     0.0068     0.0013     0.0001     0.0003     0.0000     0.0002     0.0001 </r>
        <r>    -5.7340     0.5148     0.0035     0.0104     0.0033     0.0002     0.0009     0.0000     0.0006     0.0003 </r>
        <r>    -5.6020     0.5839     0.0069     0.0066     0.0052     0.0002     0.0007     0.0000     0.0006     0.0003 </r>
        <r>    -5.4699     0.5419     0.0083     0.0049     0.0058     0.0001     0.0005     0.0000     0.0005     0.0002 </r>
        <r>    -5.3379     0.2495     0.0034     0.0034     0.0024     0.0001     0.0002     0.0000     0.0002     0.0001 </r>
        <r>    -5.2059     0.2717     0.0029     0.0058     0.0021     0.0001     0.0003     0.0000     0.0002     0.0001 </r>
        <r>    -5.0739     0.2418     0.0031     0.0044     0.0022     0.0001     0.0002     0.0000     0.0002     0.0001 </r>
        <r>    -4.9419     0.2105     0.0036     0.0012     0.0026     0.0000     0.0001     0.0000     0.0001     0.0000 </r>
        <r>    -4.8099     0.1081     0.0012     0.0016     0.0008     0.0000     0.0001     0.0000     0.0001     0.0000 </r>
        <r>    -4.6778     0.0733     0.0009     0.0011     0.0006     0.0000     0.0000     0.0000     0.0000     0.0000 </r>
        <r>    -4.5458     0.1118     0.0012     0.0018     0.0008     0.0000     0.0001     0.0000     0.0001     0.0000 </r>
        <r>    -4.4138     0.1711     0.0019     0.0021     0.0014     0.0000     0.0001     0.0000     0.0001     0.0000 </r>
        <r>    -4.2818     0.0570     0.0007     0.0003     0.0005     0.0000     0.0000     0.0000     0.0000     0.0000 </r>
        <r>    -4.1498     0.0069     0.0001     0.0000     0.0001     0.0000     0.0000     0.0000     0.0000     0.0000 </r>
        <r>    -4.0178     0.0861     0.0006     0.0009     0.0004     0.0000     0.0000     0.0000     0.0000     0.0000 </r>
        <r>    -3.8857     0.0440     0.0003     0.0001     0.0002     0.0000     0.0000     0.0000     0.0000     0.0000 </r>
        <r>    -3.7537     0.0231     0.0001     0.0001     0.0001     0.0000     0.0000     0.0000     0.0000     0.0000 </r>
        <r>    -3.6217     0.0070     0.0000     0.0000     0.0000     0.0000     0.0000     0.0000     0.0000     0.0000 </r>
        <r>    -3.4897     0.0011     0.0000     0.0000     0.0000     0.0000     0.0000     0.0000     0.0000     0.0000 </r>
        <r>    -3.3577     0.0000     0.0000     0.0000     0.0000     0.0000     0.0000     0.0000     0.0000     0.0000 </r>
        <r>    -3.2257     0.0000     0.0000     0.0000     0.0000     0.0000     0.0000     0.0000     0.0000     0.0000 </r>
        <r>    -3.0936     0.0000     0.0000     0.0000     0.0000     0.0000     0.0000     0.0000     0.0000     0.0000 </r>
        <r>    -2.9616     0.0000     0.0000     0.0000     0.0000     0.0000     0.0000     0.0000     0.0000     0.0000 </r>
        <r>    -2.8296     0.0000     0.0000     0.0000     0.0000     0.0000     0.0000     0.0000     0.0000     0.0000 </r>
        <r>    -2.6976     0.0000     0.0000     0.0000     0.0000     0.0000     0.0000     0.0000     0.0000     0.0000 </r>
        <r>    -2.5656     0.0000     0.0000     0.0000     0.0000     0.0000     0.0000     0.0000     0.0000     0.0000 </r>
        <r>    -2.4336     0.0000     0.0000     0.0000     0.0000     0.0000     0.0000     0.0000     0.0000     0.0000 </r>
        <r>    -2.3015     0.0000     0.0000     0.0000     0.0000     0.0000     0.0000     0.0000     0.0000     0.0000 </r>
        <r>    -2.1695     0.0000     0.0000     0.0000     0.0000     0.0000     0.0000     0.0000     0.0000     0.0000 </r>
        <r>    -2.0375     0.0000     0.0000     0.0000     0.0000     0.0000     0.0000     0.0000     0.0000     0.0000 </r>
        <r>    -1.9055     0.0000     0.0000     0.0000     0.0000     0.0000     0.0000     0.0000     0.0000     0.0000 </r>
        <r>    -1.7735     0.0000     0.0000     0.0000     0.0000     0.0000     0.0000     0.0000     0.0000     0.0000 </r>
        <r>    -1.6415     0.0000     0.0000     0.0000     0.0000     0.0000     0.0000     0.0000     0.0000     0.0000 </r>
        <r>    -1.5094     0.0000     0.0000     0.0000     0.0000     0.0000     0.0000     0.0000     0.0000     0.0000 </r>
        <r>    -1.3774     0.0000     0.0000     0.0000     0.0000     0.0000     0.0000     0.0000     0.0000     0.0000 </r>
        <r>    -1.2454     0.0000     0.0000     0.0000     0.0000     0.0000     0.0000     0.0000     0.0000     0.0000 </r>
        <r>    -1.1134     0.0000     0.0000     0.0000     0.0000     0.0000     0.0000     0.0000     0.0000     0.0000 </r>
        <r>    -0.9814     0.0000     0.0000     0.0000     0.0000     0.0000     0.0000     0.0000     0.0000     0.0000 </r>
        <r>    -0.8494     0.0000     0.0003     0.0004     0.0004     0.0000     0.0000     0.0000     0.0000     0.0000 </r>
        <r>    -0.7173     0.0002     0.0042     0.0045     0.0045     0.0000     0.0000     0.0000     0.0000     0.0000 </r>
        <r>    -0.5853     0.0017     0.0280     0.0309     0.0310     0.0001     0.0001     0.0000     0.0001     0.0001 </r>
        <r>    -0.4533     0.0015     0.0185     0.0208     0.0212     0.0001     0.0001     0.0000     0.0001     0.0001 </r>
        <r>    -0.3213     0.0058     0.0599     0.0671     0.0656     0.0003     0.0004     0.0001     0.0003     0.0003 </r>
        <r>    -0.1893     0.0030     0.0444     0.0505     0.0468     0.0002     0.0003     0.0001     0.0003     0.0003 </r>
        <r>    -0.0572     0.0070     0.0640     0.0707     0.0651     0.0003     0.0005     0.0003     0.0004     0.0004 </r>
        <r>     0.0748     0.0073     0.0913     0.1090     0.0856     0.0005     0.0010     0.0004     0.0007     0.0006 </r>
        <r>     0.2068     0.0061     0.0825     0.1232     0.0713     0.0005     0.0012     0.0004     0.0009     0.0005 </r>
        <r>     0.3388     0.0108     0.1023     0.1507     0.1003     0.0007     0.0015     0.0007     0.0011     0.0009 </r>
        <r>     0.4708     0.0088     0.0940     0.1715     0.0896     0.0007     0.0018     0.0005     0.0014     0.0009 </r>
        <r>     0.6028     0.0163     0.1314     0.2334     0.1289     0.0011     0.0028     0.0005     0.0022     0.0013 </r>
        <r>     0.7349     0.0086     0.0768     0.1556     0.0741     0.0006     0.0018     0.0007     0.0013     0.0006 </r>
        <r>     0.8669     0.0243     0.1321     0.2408     0.1348     0.0015     0.0029     0.0007     0.0021     0.0019 </r>
        <r>     0.9989     0.0138     0.0660     0.1229     0.0605     0.0007     0.0013     0.0003     0.0010     0.0009 </r>
        <r>     1.1309     0.0121     0.0552     0.1184     0.0518     0.0007     0.0012     0.0003     0.0009     0.0008 </r>
        <r>     1.2629     0.0168     0.0841     0.1390     0.0713     0.0009     0.0015     0.0006     0.0011     0.0010 </r>
        <r>     1.3949     0.0233     0.1535     0.1194     0.1338     0.0011     0.0017     0.0007     0.0014     0.0011 </r>
        <r>     1.5270     0.0251     0.1656     0.0927     0.1328     0.0010     0.0018     0.0008     0.0017     0.0008 </r>
        <r>     1.6590     0.0327     0.2110     0.1047     0.1711     0.0013     0.0024     0.0008     0.0022     0.0011 </r>
        <r>     1.7910     0.0169     0.1104     0.0412     0.0950     0.0006     0.0011     0.0004     0.0011     0.0005 </r>
        <r>     1.9230     0.0275     0.1289     0.0612     0.1117     0.0007     0.0018     0.0008     0.0018     0.0006 </r>
        <r>     2.0550     0.0240     0.1212     0.0554     0.1048     0.0008     0.0017     0.0007     0.0016     0.0007 </r>
        <r>     2.1870     0.0282     0.1783     0.0647     0.1497     0.0011     0.0020     0.0007     0.0019     0.0009 </r>
        <r>     2.3191     0.0141     0.0835     0.0362     0.0723     0.0004     0.0013     0.0006     0.0011     0.0003 </r>
        <r>     2.4511     0.0156     0.0817     0.0451     0.0686     0.0004     0.0014     0.0005     0.0013     0.0004 </r>
        <r>     2.5831     0.0185     0.0880     0.0608     0.0859     0.0007     0.0021     0.0007     0.0019     0.0006 </r>
        <r>     2.7151     0.0193     0.0805     0.0617     0.0937     0.0006     0.0020     0.0007     0.0020     0.0006 </r>
        <r>     2.8471     0.0159     0.0777     0.0611     0.0900     0.0006     0.0020     0.0009     0.0018     0.0005 </r>
        <r>     2.9791     0.0155     0.0604     0.0499     0.0697     0.0008     0.0017     0.0004     0.0015     0.0008 </r>
        <r>     3.1112     0.0358     0.1492     0.1370     0.1799     0.0017     0.0046     0.0012     0.0041     0.0015 </r>
        <r>     3.2432     0.0160     0.0829     0.0891     0.1085     0.0010     0.0026     0.0006     0.0021     0.0010 </r>
        <r>     3.3752     0.0195     0.0789     0.0715     0.1045     0.0011     0.0020     0.0007     0.0017     0.0011 </r>
        <r>     3.5072     0.0233     0.0847     0.0919     0.1106     0.0014     0.0026     0.0009     0.0021     0.0014 </r>
        <r>     3.6392     0.0320     0.1343     0.1015     0.1670     0.0017     0.0031     0.0012     0.0029     0.0015 </r>
        <r>     3.7712     0.0451     0.1807     0.1392     0.2252     0.0025     0.0052     0.0016     0.0045     0.0023 </r>
        <r>     3.9033     0.0383     0.1610     0.1469     0.2288     0.0022     0.0047     0.0015     0.0040     0.0020 </r>
        <r>     4.0353     0.0219     0.0895     0.0736     0.1254     0.0016     0.0020     0.0010     0.0016     0.0014 </r>
        <r>     4.1673     0.0250     0.1441     0.0987     0.1716     0.0022     0.0037     0.0013     0.0030     0.0018 </r>
        <r>     4.2993     0.0325     0.1800     0.1182     0.2086     0.0027     0.0044     0.0013     0.0038     0.0022 </r>
        <r>     4.4313     0.0366     0.1731     0.0982     0.2200     0.0017     0.0048     0.0016     0.0041     0.0017 </r>
        <r>     4.5634     0.0260     0.1155     0.0759     0.1533     0.0010     0.0036     0.0011     0.0030     0.0010 </r>
        <r>     4.6954     0.0188     0.0922     0.0569     0.1273     0.0009     0.0032     0.0010     0.0023     0.0010 </r>
        <r>     4.8274     0.0091     0.0356     0.0181     0.0472     0.0004     0.0009     0.0005     0.0007     0.0003 </r>
        <r>     4.9594     0.0219     0.0834     0.0408     0.1105     0.0005     0.0028     0.0011     0.0021     0.0005 </r>
        <r>     5.0914     0.0135     0.0514     0.0226     0.0686     0.0003     0.0017     0.0007     0.0012     0.0003 </r>
        <r>     5.2234     0.0026     0.0088     0.0040     0.0119     0.0000     0.0003     0.0001     0.0003     0.0000 </r>
        <r>     5.3555     0.0029     0.0110     0.0013     0.0128     0.0000     0.0001     0.0001     0.0002     0.0000 </r>
        <r>     5.4875     0.0000     0.0000     0.0000     0.0000     0.0000     0.0000     0.0000     0.0000     0.0000 </r>
        <r>     5.6195     0.0000     0.0000     0.0000     0.0000     0.0000     0.0000     0.0000     0.0000     0.0000 </r>
        <r>     5.7515     0.0000     0.0000     0.0000     0.0000     0.0000     0.0000     0.0000     0.0000     0.0000 </r>
        <r>     5.8835     0.0000     0.0000     0.0000     0.0000     0.0000     0.0000     0.0000     0.0000     0.0000 </r>
        <r>     6.0155     0.0000     0.0000     0.0000     0.0000     0.0000     0.0000     0.0000     0.0000     0.0000 </r>
        <r>     6.1476     0.0010     0.0033     0.0016     0.0024     0.0001     0.0001     0.0001     0.0001     0.0001 </r>
        <r>     6.2796     0.0110     0.0372     0.0143     0.0296     0.0007     0.0010     0.0012     0.0008     0.0006 </r>
        <r>     6.4116     0.0375     0.1220     0.0637     0.1104     0.0023     0.0042     0.0026     0.0035     0.0025 </r>
        <r>     6.5436     0.0554     0.2029     0.1115     0.1623     0.0031     0.0064     0.0057     0.0061     0.0032 </r>
        <r>     6.6756     0.0512     0.2224     0.1369     0.1774     0.0042     0.0087     0.0051     0.0077     0.0048 </r>
        <r>     6.8076     0.0353     0.1635     0.1161     0.1240     0.0031     0.0059     0.0036     0.0057     0.0035 </r>
        <r>     6.9397     0.0303     0.1203     0.1094     0.0968     0.0026     0.0046     0.0023     0.0042     0.0031 </r>
        <r>     7.0717     0.0264     0.1492     0.1304     0.1195     0.0031     0.0056     0.0042     0.0057     0.0033 </r>
        <r>     7.2037     0.0322     0.1928     0.2582     0.1498     0.0047     0.0097     0.0053     0.0101     0.0054 </r>
        <r>     7.3357     0.0154     0.0961     0.2378     0.0818     0.0038     0.0067     0.0023     0.0062     0.0048 </r>
        <r>     7.4677     0.0147     0.1124     0.1944     0.1030     0.0035     0.0066     0.0022     0.0063     0.0039 </r>
        <r>     7.5997     0.0166     0.1216     0.1894     0.1091     0.0032     0.0065     0.0031     0.0063     0.0035 </r>
        <r>     7.7318     0.0180     0.1516     0.2767     0.1361     0.0049     0.0081     0.0043     0.0080     0.0055 </r>
        <r>     7.8638     0.0140     0.1130     0.1946     0.1065     0.0030     0.0064     0.0035     0.0062     0.0034 </r>
        <r>     7.9958     0.0083     0.0837     0.1326     0.0740     0.0027     0.0035     0.0025     0.0036     0.0028 </r>
        <r>     8.1278     0.0085     0.1113     0.2032     0.0964     0.0035     0.0059     0.0034     0.0057     0.0035 </r>
        <r>     8.2598     0.0088     0.1057     0.1719     0.0942     0.0028     0.0048     0.0031     0.0046     0.0029 </r>
        <r>     8.3918     0.0051     0.0680     0.1020     0.0655     0.0015     0.0027     0.0018     0.0025     0.0016 </r>
        <r>     8.5239     0.0034     0.0688     0.0933     0.0668     0.0014     0.0025     0.0017     0.0023     0.0016 </r>
        <r>     8.6559     0.0033     0.0375     0.0484     0.0374     0.0011     0.0010     0.0006     0.0009     0.0011 </r>
        <r>     8.7879     0.0058     0.0922     0.1215     0.0917     0.0022     0.0031     0.0026     0.0030     0.0023 </r>
        <r>     8.9199     0.0019     0.0347     0.0460     0.0364     0.0011     0.0014     0.0010     0.0014     0.0012 </r>
        <r>     9.0519     0.0016     0.0235     0.0261     0.0220     0.0043     0.0023     0.0051     0.0032     0.0047 </r>
        <r>     9.1839     0.0005     0.0148     0.0182     0.0152     0.0011     0.0006     0.0012     0.0008     0.0012 </r>
        <r>     9.3160     0.0027     0.0666     0.0785     0.0597     0.0024     0.0015     0.0023     0.0018     0.0024 </r>
        <r>     9.4480     0.0014     0.0175     0.0139     0.0168     0.0082     0.0038     0.0103     0.0054     0.0090 </r>
        <r>     9.5800     0.0008     0.0127     0.0098     0.0125     0.0060     0.0026     0.0075     0.0036     0.0065 </r>
        <r>     9.7120     0.0010     0.0142     0.0097     0.0153     0.0094     0.0040     0.0118     0.0057     0.0101 </r>
        <r>     9.8440     0.0009     0.0127     0.0082     0.0131     0.0084     0.0035     0.0100     0.0044     0.0089 </r>
        <r>     9.9761     0.0006     0.0072     0.0049     0.0082     0.0052     0.0022     0.0082     0.0025     0.0052 </r>
        <r>    10.1081     0.0016     0.0137     0.0102     0.0163     0.0153     0.0065     0.0295     0.0075     0.0143 </r>
        <r>    10.2401     0.0014     0.0143     0.0127     0.0168     0.0136     0.0060     0.0271     0.0068     0.0144 </r>
        <r>    10.3721     0.0020     0.0139     0.0087     0.0133     0.0150     0.0071     0.0283     0.0084     0.0127 </r>
        <r>    10.5041     0.0023     0.0209     0.0204     0.0233     0.0222     0.0115     0.0253     0.0106     0.0208 </r>
        <r>    10.6361     0.0022     0.0159     0.0187     0.0185     0.0195     0.0104     0.0219     0.0092     0.0187 </r>
        <r>    10.7682     0.0013     0.0084     0.0101     0.0108     0.0122     0.0070     0.0174     0.0055     0.0117 </r>
        <r>    10.9002     0.0029     0.0141     0.0149     0.0171     0.0183     0.0088     0.0249     0.0077     0.0203 </r>
        <r>    11.0322     0.0024     0.0117     0.0077     0.0149     0.0153     0.0088     0.0185     0.0084     0.0165 </r>
        <r>    11.1642     0.0024     0.0091     0.0050     0.0107     0.0159     0.0080     0.0212     0.0091     0.0177 </r>
        <r>    11.2962     0.0022     0.0078     0.0079     0.0090     0.0110     0.0065     0.0303     0.0076     0.0107 </r>
        <r>    11.4282     0.0017     0.0089     0.0197     0.0135     0.0216     0.0139     0.0268     0.0143     0.0205 </r>
        <r>    11.5603     0.0014     0.0071     0.0116     0.0099     0.0197     0.0125     0.0243     0.0139     0.0186 </r>
        <r>    11.6923     0.0022     0.0084     0.0093     0.0100     0.0147     0.0086     0.0177     0.0090     0.0142 </r>
        <r>    11.8243     0.0051     0.0157     0.0121     0.0158     0.0265     0.0164     0.0313     0.0173     0.0271 </r>
        <r>    11.9563     0.0047     0.0088     0.0054     0.0102     0.0147     0.0090     0.0203     0.0096     0.0139 </r>
        <r>    12.0883     0.0089     0.0201     0.0205     0.0228     0.0312     0.0257     0.0327     0.0249     0.0293 </r>
        <r>    12.2203     0.0099     0.0199     0.0099     0.0202     0.0224     0.0150     0.0143     0.0150     0.0229 </r>
        <r>    12.3524     0.0119     0.0222     0.0257     0.0204     0.0452     0.0345     0.0342     0.0385     0.0455 </r>
        <r>    12.4844     0.0187     0.0205     0.0287     0.0227     0.0413     0.0352     0.0507     0.0337     0.0420 </r>
        <r>    12.6164     0.0115     0.0168     0.0122     0.0144     0.0176     0.0175     0.0182     0.0158     0.0169 </r>
        <r>    12.7484     0.0070     0.0100     0.0062     0.0097     0.0176     0.0162     0.0163     0.0155     0.0143 </r>
        <r>    12.8804     0.0148     0.0146     0.0114     0.0140     0.0219     0.0220     0.0328     0.0199     0.0203 </r>
        <r>    13.0124     0.0153     0.0131     0.0145     0.0118     0.0172     0.0164     0.0170     0.0190     0.0174 </r>
        <r>    13.1445     0.0245     0.0179     0.0240     0.0192     0.0243     0.0318     0.0290     0.0305     0.0241 </r>
        <r>    13.2765     0.0267     0.0347     0.0333     0.0353     0.0424     0.0488     0.0589     0.0511     0.0462 </r>
        <r>    13.4085     0.0182     0.0251     0.0252     0.0264     0.0391     0.0321     0.0265     0.0327     0.0382 </r>
        <r>    13.5405     0.0171     0.0222     0.0262     0.0251     0.0326     0.0259     0.0234     0.0273     0.0334 </r>
        <r>    13.6725     0.0165     0.0245     0.0182     0.0222     0.0371     0.0383     0.0268     0.0409     0.0386 </r>
        <r>    13.8045     0.0167     0.0298     0.0260     0.0307     0.0409     0.0404     0.0248     0.0454     0.0457 </r>
        <r>    13.9366     0.0164     0.0237     0.0139     0.0233     0.0285     0.0255     0.0378     0.0288     0.0290 </r>
        <r>    14.0686     0.0173     0.0360     0.0218     0.0353     0.0389     0.0402     0.0363     0.0442     0.0364 </r>
        <r>    14.2006     0.0276     0.0292     0.0288     0.0250     0.0485     0.0395     0.0324     0.0427     0.0469 </r>
        <r>    14.3326     0.0234     0.0330     0.0313     0.0315     0.0434     0.0585     0.0319     0.0592     0.0430 </r>
        <r>    14.4646     0.0264     0.0308     0.0159     0.0281     0.0379     0.0533     0.0257     0.0585     0.0402 </r>
        <r>    14.5966     0.0157     0.0371     0.0237     0.0347     0.0445     0.0457     0.0232     0.0537     0.0471 </r>
        <r>    14.7287     0.0215     0.0390     0.0328     0.0349     0.0469     0.0414     0.0432     0.0431     0.0502 </r>
        <r>    14.8607     0.0304     0.0306     0.0224     0.0281     0.0438     0.0421     0.0529     0.0454     0.0462 </r>
        <r>    14.9927     0.0144     0.0195     0.0182     0.0192     0.0370     0.0325     0.0247     0.0335     0.0344 </r>
        <r>    15.1247     0.0274     0.0403     0.0347     0.0410     0.0645     0.0703     0.0542     0.0713     0.0592 </r>
        <r>    15.2567     0.0309     0.0449     0.0297     0.0461     0.0756     0.0776     0.0700     0.0801     0.0688 </r>
        <r>    15.3888     0.0158     0.0246     0.0188     0.0245     0.0424     0.0487     0.0388     0.0496     0.0425 </r>
        <r>    15.5208     0.0183     0.0266     0.0220     0.0276     0.0480     0.0491     0.0519     0.0502     0.0489 </r>
        <r>    15.6528     0.0199     0.0214     0.0249     0.0201     0.0466     0.0419     0.0445     0.0423     0.0450 </r>
        <r>    15.7848     0.0213     0.0170     0.0214     0.0161     0.0318     0.0447     0.0333     0.0450     0.0335 </r>
        <r>    15.9168     0.0211     0.0209     0.0146     0.0223     0.0456     0.0528     0.0329     0.0556     0.0445 </r>
        <r>    16.0488     0.0203     0.0238     0.0163     0.0254     0.0578     0.0460     0.0530     0.0424     0.0527 </r>
        <r>    16.1809     0.0160     0.0228     0.0184     0.0229     0.0389     0.0502     0.0399     0.0454     0.0364 </r>
        <r>    16.3129     0.0125     0.0274     0.0181     0.0258     0.0398     0.0497     0.0472     0.0512     0.0389 </r>
        <r>    16.4449     0.0306     0.0365     0.0309     0.0340     0.0637     0.0692     0.0535     0.0766     0.0634 </r>
        <r>    16.5769     0.0249     0.0288     0.0322     0.0288     0.0610     0.0854     0.0654     0.0877     0.0591 </r>
        <r>    16.7089     0.0143     0.0213     0.0194     0.0220     0.0332     0.0435     0.0439     0.0491     0.0310 </r>
        <r>    16.8409     0.0165     0.0264     0.0169     0.0224     0.0599     0.0486     0.0577     0.0504     0.0483 </r>
        <r>    16.9730     0.0283     0.0367     0.0301     0.0314     0.0714     0.0805     0.0727     0.0805     0.0658 </r>
        <r>    17.1050     0.0296     0.0285     0.0283     0.0254     0.0658     0.0692     0.0536     0.0674     0.0649 </r>
        <r>    17.2370     0.0118     0.0111     0.0119     0.0109     0.0379     0.0356     0.0198     0.0339     0.0359 </r>
        <r>    17.3690     0.0159     0.0241     0.0324     0.0250     0.0751     0.0620     0.0678     0.0555     0.0725 </r>
        <r>    17.5010     0.0266     0.0321     0.0429     0.0351     0.0940     0.0775     0.0631     0.0727     0.0960 </r>
        <r>    17.6330     0.0187     0.0221     0.0269     0.0244     0.0455     0.0627     0.0418     0.0585     0.0497 </r>
        <r>    17.7651     0.0169     0.0216     0.0285     0.0241     0.0674     0.0560     0.0602     0.0574     0.0600 </r>
        <r>    17.8971     0.0269     0.0290     0.0299     0.0267     0.0700     0.0797     0.0700     0.0818     0.0692 </r>
        <r>    18.0291     0.0253     0.0263     0.0236     0.0266     0.0705     0.0676     0.0709     0.0663     0.0654 </r>
        <r>    18.1611     0.0187     0.0304     0.0295     0.0315     0.0887     0.0700     0.0873     0.0623     0.0802 </r>
        <r>    18.2931     0.0208     0.0294     0.0336     0.0306     0.0839     0.0928     0.0735     0.0862     0.0844 </r>
        <r>    18.4251     0.0207     0.0236     0.0252     0.0262     0.0763     0.0722     0.0676     0.0689     0.0755 </r>
        <r>    18.5572     0.0089     0.0126     0.0154     0.0131     0.0366     0.0381     0.0338     0.0311     0.0401 </r>
        <r>    18.6892     0.0179     0.0196     0.0250     0.0194     0.0618     0.0640     0.0476     0.0579     0.0607 </r>
        <r>    18.8212     0.0223     0.0261     0.0198     0.0266     0.0611     0.0723     0.0739     0.0757     0.0626 </r>
        <r>    18.9532     0.0264     0.0429     0.0375     0.0459     0.0841     0.1037     0.0789     0.0927     0.0881 </r>
        <r>    19.0852     0.0155     0.0155     0.0191     0.0155     0.0398     0.0542     0.0412     0.0499     0.0476 </r>
        <r>    19.2172     0.0247     0.0190     0.0236     0.0184     0.0634     0.0644     0.0563     0.0616     0.0629 </r>
        <r>    19.3493     0.0225     0.0296     0.0377     0.0318     0.0810     0.0904     0.1056     0.0821     0.0814 </r>
        <r>    19.4813     0.0184     0.0231     0.0260     0.0297     0.0627     0.0693     0.0639     0.0635     0.0711 </r>
        <r>    19.6133     0.0203     0.0271     0.0248     0.0268     0.0549     0.0655     0.0607     0.0691     0.0609 </r>
        <r>    19.7453     0.0211     0.0337     0.0377     0.0369     0.0749     0.0808     0.0947     0.0786     0.0758 </r>
        <r>    19.8773     0.0217     0.0375     0.0430     0.0398     0.0859     0.1070     0.1004     0.1005     0.0896 </r>
        <r>    20.0093     0.0177     0.0238     0.0300     0.0218     0.0561     0.0634     0.0818     0.0579     0.0513 </r>
        <r>    20.1414     0.0117     0.0284     0.0270     0.0281     0.0614     0.0690     0.0917     0.0679     0.0641 </r>
        <r>    20.2734     0.0122     0.0257     0.0187     0.0267     0.0711     0.0481     0.0816     0.0503     0.0769 </r>
        <r>    20.4054     0.0167     0.0328     0.0345     0.0332     0.0836     0.0906     0.0878     0.0874     0.0883 </r>
        <r>    20.5374     0.0190     0.0366     0.0372     0.0325     0.1038     0.0902     0.0996     0.0911     0.1042 </r>
        <r>    20.6694     0.0140     0.0287     0.0214     0.0260     0.0699     0.0565     0.0995     0.0550     0.0721 </r>
        <r>    20.8015     0.0132     0.0331     0.0286     0.0310     0.0836     0.0780     0.0770     0.0790     0.0807 </r>
        <r>    20.9335     0.0143     0.0308     0.0291     0.0291     0.0922     0.0764     0.0691     0.0791     0.0902 </r>
        <r>    21.0655     0.0152     0.0300     0.0261     0.0295     0.0747     0.0748     0.0851     0.0782     0.0759 </r>
        <r>    21.1975     0.0147     0.0189     0.0166     0.0187     0.0557     0.0468     0.0560     0.0473     0.0563 </r>
        <r>    21.3295     0.0215     0.0346     0.0316     0.0328     0.1091     0.0785     0.1028     0.0758     0.1087 </r>
        <r>    21.4615     0.0206     0.0359     0.0302     0.0355     0.0939     0.0982     0.0933     0.0909     0.0953 </r>
        <r>    21.5936     0.0131     0.0200     0.0221     0.0215     0.0485     0.0579     0.0509     0.0585     0.0525 </r>
        <r>    21.7256     0.0122     0.0159     0.0189     0.0185     0.0534     0.0592     0.0406     0.0603     0.0561 </r>
        <r>    21.8576     0.0154     0.0199     0.0285     0.0230     0.0951     0.0907     0.0987     0.0860     0.0975 </r>
        <r>    21.9896     0.0175     0.0251     0.0257     0.0247     0.0826     0.0857     0.0776     0.0823     0.0893 </r>
        <r>    22.1216     0.0166     0.0250     0.0262     0.0248     0.0934     0.0953     0.0849     0.0952     0.1019 </r>
        <r>    22.2536     0.0110     0.0263     0.0264     0.0274     0.0824     0.0983     0.1125     0.0917     0.0935 </r>
        <r>    22.3857     0.0134     0.0186     0.0270     0.0197     0.0823     0.0857     0.0881     0.0921     0.0845 </r>
        <r>    22.5177     0.0138     0.0202     0.0275     0.0224     0.0904     0.0808     0.0945     0.0825     0.0923 </r>
        <r>    22.6497     0.0134     0.0204     0.0251     0.0203     0.0719     0.0980     0.0642     0.1076     0.0751 </r>
        <r>    22.7817     0.0127     0.0201     0.0222     0.0198     0.0863     0.0933     0.0868     0.0958     0.0816 </r>
        <r>    22.9137     0.0084     0.0116     0.0110     0.0102     0.0576     0.0646     0.0598     0.0662     0.0632 </r>
        <r>    23.0457     0.0050     0.0104     0.0053     0.0095     0.0417     0.0325     0.0434     0.0384     0.0435 </r>
        <r>    23.1778     0.0073     0.0157     0.0136     0.0148     0.0584     0.0497     0.0428     0.0533     0.0534 </r>
        <r>    23.3098     0.0021     0.0050     0.0025     0.0050     0.0208     0.0131     0.0158     0.0130     0.0202 </r>
        <r>    23.4418     0.0054     0.0115     0.0077     0.0125     0.0505     0.0337     0.0566     0.0346     0.0502 </r>
        <r>    23.5738     0.0079     0.0115     0.0097     0.0106     0.0473     0.0338     0.0471     0.0323     0.0438 </r>
        <r>    23.7058     0.0045     0.0093     0.0066     0.0081     0.0326     0.0371     0.0394     0.0342     0.0351 </r>
        <r>    23.8378     0.0028     0.0032     0.0024     0.0027     0.0125     0.0151     0.0248     0.0144     0.0146 </r>
        <r>    23.9699     0.0017     0.0040     0.0028     0.0037     0.0213     0.0147     0.0236     0.0142     0.0187 </r>
        <r>    24.1019     0.0016     0.0029     0.0014     0.0023     0.0098     0.0180     0.0059     0.0150     0.0081 </r>
        <r>    24.2339     0.0008     0.0010     0.0029     0.0010     0.0023     0.0030     0.0147     0.0038     0.0021 </r>
        <r>    24.3659     0.0008     0.0013     0.0011     0.0019     0.0072     0.0044     0.0010     0.0032     0.0068 </r>
        <r>    24.4979     0.0009     0.0013     0.0010     0.0017     0.0062     0.0042     0.0007     0.0031     0.0059 </r>
        <r>    24.6299     0.0007     0.0008     0.0017     0.0014     0.0062     0.0084     0.0039     0.0060     0.0040 </r>
        <r>    24.7620     0.0002     0.0002     0.0004     0.0004     0.0016     0.0022     0.0011     0.0016     0.0011 </r>
        <r>    24.8940     0.0001     0.0009     0.0008     0.0008     0.0039     0.0068     0.0073     0.0059     0.0027 </r>
        <r>    25.0260     0.0001     0.0004     0.0005     0.0004     0.0017     0.0042     0.0050     0.0029     0.0011 </r>
        <r>    25.1580     0.0000     0.0000     0.0000     0.0000     0.0000     0.0000     0.0000     0.0000     0.0000 </r>
        <r>    25.2900     0.0000     0.0000     0.0000     0.0000     0.0000     0.0000     0.0000     0.0000     0.0000 </r>
        <r>    25.4221     0.0000     0.0000     0.0000     0.0000     0.0000     0.0000     0.0000     0.0000     0.0000 </r>
        <r>    25.5541     0.0000     0.0000     0.0000     0.0000     0.0000     0.0000     0.0000     0.0000     0.0000 </r>
        <r>    25.6861     0.0001     0.0004     0.0000     0.0003     0.0007     0.0001     0.0113     0.0001     0.0011 </r>
        <r>    25.8181     0.0000     0.0001     0.0000     0.0001     0.0006     0.0004     0.0040     0.0003     0.0005 </r>
        <r>    25.9501     0.0001     0.0002     0.0003     0.0002     0.0050     0.0032     0.0073     0.0031     0.0031 </r>
        <r>    26.0821     0.0000     0.0000     0.0002     0.0000     0.0026     0.0017     0.0000     0.0017     0.0016 </r>
        <r>    26.2142     0.0000     0.0000     0.0000     0.0000     0.0000     0.0000     0.0000     0.0000     0.0000 </r>
        <r>    26.3462     0.0000     0.0002     0.0000     0.0002     0.0023     0.0036     0.0001     0.0026     0.0015 </r>
        <r>    26.4782     0.0000     0.0002     0.0000     0.0002     0.0027     0.0035     0.0003     0.0027     0.0017 </r>
        <r>    26.6102     0.0000     0.0001     0.0001     0.0000     0.0053     0.0028     0.0017     0.0028     0.0034 </r>
        <r>    26.7422     0.0000     0.0000     0.0000     0.0000     0.0000     0.0000     0.0000     0.0000     0.0000 </r>
        <r>    26.8742     0.0000     0.0000     0.0000     0.0000     0.0000     0.0000     0.0000     0.0000     0.0000 </r>
        <r>    27.0063     0.0000     0.0000     0.0000     0.0000     0.0000     0.0000     0.0000     0.0000     0.0000 </r>
        <r>    27.1383     0.0000     0.0000     0.0000     0.0000     0.0000     0.0000     0.0000     0.0000     0.0000 </r>
        <r>    27.2703     0.0000     0.0000     0.0000     0.0000     0.0000     0.0000     0.0000     0.0000     0.0000 </r>
        <r>    27.4023     0.0000     0.0000     0.0000     0.0000     0.0000     0.0000     0.0000     0.0000     0.0000 </r>
        <r>    27.5343     0.0000     0.0000     0.0000     0.0000     0.0000     0.0000     0.0000     0.0000     0.0000 </r>
        <r>    27.6663     0.0000     0.0000     0.0000     0.0000     0.0000     0.0000     0.0000     0.0000     0.0000 </r>
        <r>    27.7984     0.0000     0.0000     0.0000     0.0000     0.0000     0.0000     0.0000     0.0000     0.0000 </r>
        <r>    27.9304     0.0000     0.0000     0.0000     0.0000     0.0000     0.0000     0.0000     0.0000     0.0000 </r>
        <r>    28.0624     0.0000     0.0000     0.0000     0.0000     0.0000     0.0000     0.0000     0.0000     0.0000 </r>
        <r>    28.1944     0.0000     0.0000     0.0000     0.0000     0.0000     0.0000     0.0000     0.0000     0.0000 </r>
        <r>    28.3264     0.0000     0.0000     0.0000     0.0000     0.0000     0.0000     0.0000     0.0000     0.0000 </r>
       </set>
      </set>
     </set>
    </array>
   </partial>
  </dos>
  <projected>
   <eigenvalues>
    <array>
     <dimension dim="1">band</dimension>
     <dimension dim="2">kpoint</dimension>
     <dimension dim="3">spin</dimension>
     <field>eigene</field>
     <field>occ</field>
     <set>
      <set comment="spin 1">
       <set comment="kpoint 1">
        <r>   -9.4785    1.0000 </r>
        <r>   -5.9064    1.0000 </r>
        <r>   -5.9064    1.0000 </r>
        <r>    2.0039    1.0000 </r>
        <r>    2.3726    1.0000 </r>
        <r>    2.3726    1.0000 </r>
        <r>    3.4243    1.0000 </r>
        <r>    3.4243    1.0000 </r>
        <r>    4.2853    1.0000 </r>
        <r>    6.7398    0.0000 </r>
        <r>    6.7398    0.0000 </r>
        <r>    7.3666    0.0000 </r>
        <r>   10.8630    0.0000 </r>
        <r>   10.8630    0.0000 </r>
        <r>   11.8285    0.0000 </r>
        <r>   12.2042    0.0000 </r>
        <r>   12.2043    0.0000 </r>
        <r>   12.4796    0.0000 </r>
        <r>   12.5486    0.0000 </r>
        <r>   13.4797    0.0000 </r>
        <r>   13.4797    0.0000 </r>
        <r>   16.4590    0.0000 </r>
        <r>   16.4590    0.0000 </r>
        <r>   21.2934    0.0000 </r>
        <r>   21.2934    0.0000 </r>
        <r>   21.4540    0.0000 </r>
        <r>   21.9436    0.0000 </r>
        <r>   22.9121    0.0000 </r>
        <r>   22.9166    0.0000 </r>
        <r>   23.5807    0.0000 </r>
        <r>   23.8794    0.0000 </r>
        <r>   23.9264    0.0000 </r>
       </set>
       <set comment="kpoint 2">
        <r>   -9.3659    1.0000 </r>
        <r>   -5.9450    1.0000 </r>
        <r>   -5.8779    1.0000 </r>
        <r>    1.2217    1.0000 </r>
        <r>    1.8362    1.0000 </r>
        <r>    2.0825    1.0000 </r>
        <r>    3.7734    1.0000 </r>
        <r>    4.0872    1.0000 </r>
        <r>    4.5052    1.0000 </r>
        <r>    6.4412    0.0000 </r>
        <r>    6.6628    0.0000 </r>
        <r>    7.2311    0.0000 </r>
        <r>   10.5475    0.0000 </r>
        <r>   10.8421    0.0000 </r>
        <r>   11.9917    0.0000 </r>
        <r>   12.2907    0.0000 </r>
        <r>   12.6011    0.0000 </r>
        <r>   12.7533    0.0000 </r>
        <r>   13.1565    0.0000 </r>
        <r>   14.2746    0.0000 </r>
        <r>   14.4503    0.0000 </r>
        <r>   16.8362    0.0000 </r>
        <r>   16.9508    0.0000 </r>
        <r>   20.0430    0.0000 </r>
        <r>   20.2983    0.0000 </r>
        <r>   21.4643    0.0000 </r>
        <r>   21.8476    0.0000 </r>
        <r>   22.1850    0.0000 </r>
        <r>   22.4096    0.0000 </r>
        <r>   22.7844    0.0000 </r>
        <r>   23.1541    0.0000 </r>
        <r>   24.1515    0.0000 </r>
       </set>
       <set comment="kpoint 3">
        <r>   -9.0487    1.0000 </r>
        <r>   -6.1221    1.0000 </r>
        <r>   -5.8021    1.0000 </r>
        <r>    0.3636    1.0000 </r>
        <r>    1.1633    1.0000 </r>
        <r>    1.6229    1.0000 </r>
        <r>    3.6682    1.0000 </r>
        <r>    4.1908    1.0000 </r>
        <r>    4.3509    1.0000 </r>
        <r>    6.5685    0.0000 </r>
        <r>    6.7814    0.0000 </r>
        <r>    7.6007    0.0000 </r>
        <r>    9.6758    0.0000 </r>
        <r>   11.2100    0.0000 </r>
        <r>   12.3751    0.0000 </r>
        <r>   13.1168    0.0000 </r>
        <r>   13.6819    0.0000 </r>
        <r>   14.1906    0.0000 </r>
        <r>   14.4994    0.0000 </r>
        <r>   15.2877    0.0000 </r>
        <r>   16.3941    0.0000 </r>
        <r>   17.7147    0.0000 </r>
        <r>   17.9257    0.0000 </r>
        <r>   19.1085    0.0000 </r>
        <r>   19.2804    0.0000 </r>
        <r>   19.7383    0.0000 </r>
        <r>   20.0150    0.0000 </r>
        <r>   20.8293    0.0000 </r>
        <r>   21.3002    0.0000 </r>
        <r>   21.8285    0.0000 </r>
        <r>   22.3819    0.0000 </r>
        <r>   23.6464    0.0000 </r>
       </set>
       <set comment="kpoint 4">
        <r>   -8.6157    1.0000 </r>
        <r>   -6.4782    1.0000 </r>
        <r>   -5.7168    1.0000 </r>
        <r>    0.0929    1.0000 </r>
        <r>    0.7100    1.0000 </r>
        <r>    1.3193    1.0000 </r>
        <r>    2.3825    1.0000 </r>
        <r>    4.2259    1.0000 </r>
        <r>    4.3625    1.0000 </r>
        <r>    6.5553    0.0000 </r>
        <r>    6.6952    0.0000 </r>
        <r>    8.9256    0.0000 </r>
        <r>    9.0259    0.0000 </r>
        <r>   12.2641    0.0000 </r>
        <r>   13.4308    0.0000 </r>
        <r>   14.2689    0.0000 </r>
        <r>   14.7453    0.0000 </r>
        <r>   15.7111    0.0000 </r>
        <r>   16.0490    0.0000 </r>
        <r>   16.4653    0.0000 </r>
        <r>   16.7310    0.0000 </r>
        <r>   17.4004    0.0000 </r>
        <r>   17.5512    0.0000 </r>
        <r>   17.9308    0.0000 </r>
        <r>   19.3030    0.0000 </r>
        <r>   19.4100    0.0000 </r>
        <r>   19.9189    0.0000 </r>
        <r>   20.1801    0.0000 </r>
        <r>   20.6246    0.0000 </r>
        <r>   20.8835    0.0000 </r>
        <r>   21.4637    0.0000 </r>
        <r>   22.3785    0.0000 </r>
       </set>
       <set comment="kpoint 5">
        <r>   -8.3587    1.0000 </r>
        <r>   -6.7234    1.0000 </r>
        <r>   -5.6788    1.0000 </r>
        <r>    0.1232    1.0000 </r>
        <r>    0.6083    1.0000 </r>
        <r>    1.4098    1.0000 </r>
        <r>    1.5341    1.0000 </r>
        <r>    4.1846    1.0000 </r>
        <r>    4.3634    1.0000 </r>
        <r>    6.5557    0.0000 </r>
        <r>    6.6353    0.0000 </r>
        <r>    8.7967    0.0000 </r>
        <r>    9.5654    0.0000 </r>
        <r>   13.2877    0.0000 </r>
        <r>   14.5908    0.0000 </r>
        <r>   14.9122    0.0000 </r>
        <r>   15.0731    0.0000 </r>
        <r>   15.4117    0.0000 </r>
        <r>   15.6675    0.0000 </r>
        <r>   16.4198    0.0000 </r>
        <r>   17.3709    0.0000 </r>
        <r>   17.5444    0.0000 </r>
        <r>   17.8383    0.0000 </r>
        <r>   18.2082    0.0000 </r>
        <r>   18.5311    0.0000 </r>
        <r>   18.6525    0.0000 </r>
        <r>   18.8597    0.0000 </r>
        <r>   19.6631    0.0000 </r>
        <r>   21.0714    0.0000 </r>
        <r>   21.7698    0.0000 </r>
        <r>   21.8830    0.0000 </r>
        <r>   22.2994    0.0000 </r>
       </set>
       <set comment="kpoint 6">
        <r>   -9.1504    1.0000 </r>
        <r>   -6.0271    1.0000 </r>
        <r>   -5.8547    1.0000 </r>
        <r>    0.6395    1.0000 </r>
        <r>    0.9883    1.0000 </r>
        <r>    2.1865    1.0000 </r>
        <r>    3.4767    1.0000 </r>
        <r>    4.3130    1.0000 </r>
        <r>    4.3448    1.0000 </r>
        <r>    6.5822    0.0000 </r>
        <r>    6.8779    0.0000 </r>
        <r>    7.3605    0.0000 </r>
        <r>   10.2985    0.0000 </r>
        <r>   10.4321    0.0000 </r>
        <r>   12.3491    0.0000 </r>
        <r>   12.8334    0.0000 </r>
        <r>   13.2475    0.0000 </r>
        <r>   13.9364    0.0000 </r>
        <r>   13.9953    0.0000 </r>
        <r>   15.3517    0.0000 </r>
        <r>   15.5167    0.0000 </r>
        <r>   17.6257    0.0000 </r>
        <r>   17.7427    0.0000 </r>
        <r>   19.2035    0.0000 </r>
        <r>   19.3130    0.0000 </r>
        <r>   19.8845    0.0000 </r>
        <r>   20.5592    0.0000 </r>
        <r>   21.1262    0.0000 </r>
        <r>   22.6063    0.0000 </r>
        <r>   22.7729    0.0000 </r>
        <r>   23.1174    0.0000 </r>
        <r>   23.5877    0.0000 </r>
       </set>
       <set comment="kpoint 7">
        <r>   -8.7672    1.0000 </r>
        <r>   -6.2618    1.0000 </r>
        <r>   -5.8329    1.0000 </r>
        <r>    0.2089    1.0000 </r>
        <r>    0.5741    1.0000 </r>
        <r>    1.7974    1.0000 </r>
        <r>    3.0434    1.0000 </r>
        <r>    3.5402    1.0000 </r>
        <r>    3.9811    1.0000 </r>
        <r>    7.0582    0.0000 </r>
        <r>    7.3633    0.0000 </r>
        <r>    8.1449    0.0000 </r>
        <r>    9.6938    0.0000 </r>
        <r>   10.9034    0.0000 </r>
        <r>   13.1111    0.0000 </r>
        <r>   13.7941    0.0000 </r>
        <r>   14.6666    0.0000 </r>
        <r>   15.1304    0.0000 </r>
        <r>   15.2198    0.0000 </r>
        <r>   16.2918    0.0000 </r>
        <r>   17.0145    0.0000 </r>
        <r>   17.4552    0.0000 </r>
        <r>   17.8012    0.0000 </r>
        <r>   18.3218    0.0000 </r>
        <r>   19.1985    0.0000 </r>
        <r>   19.6597    0.0000 </r>
        <r>   19.9824    0.0000 </r>
        <r>   20.3254    0.0000 </r>
        <r>   21.1314    0.0000 </r>
        <r>   21.2668    0.0000 </r>
        <r>   21.7867    0.0000 </r>
        <r>   22.0994    0.0000 </r>
       </set>
       <set comment="kpoint 8">
        <r>   -8.3811    1.0000 </r>
        <r>   -6.5926    1.0000 </r>
        <r>   -5.8104    1.0000 </r>
        <r>    0.1922    1.0000 </r>
        <r>    0.5465    1.0000 </r>
        <r>    1.4615    1.0000 </r>
        <r>    1.9294    1.0000 </r>
        <r>    3.5590    1.0000 </r>
        <r>    3.7078    1.0000 </r>
        <r>    7.1504    0.0000 </r>
        <r>    7.4210    0.0000 </r>
        <r>    9.2514    0.0000 </r>
        <r>    9.3383    0.0000 </r>
        <r>   12.1197    0.0000 </r>
        <r>   13.9717    0.0000 </r>
        <r>   14.4204    0.0000 </r>
        <r>   15.1009    0.0000 </r>
        <r>   15.5695    0.0000 </r>
        <r>   16.2347    0.0000 </r>
        <r>   16.5166    0.0000 </r>
        <r>   17.0170    0.0000 </r>
        <r>   17.4479    0.0000 </r>
        <r>   17.9151    0.0000 </r>
        <r>   18.3126    0.0000 </r>
        <r>   18.7479    0.0000 </r>
        <r>   19.2316    0.0000 </r>
        <r>   19.7981    0.0000 </r>
        <r>   20.3454    0.0000 </r>
        <r>   20.5344    0.0000 </r>
        <r>   20.8160    0.0000 </r>
        <r>   21.6288    0.0000 </r>
        <r>   22.0576    0.0000 </r>
       </set>
       <set comment="kpoint 9">
        <r>   -8.4022    1.0000 </r>
        <r>   -6.3948    1.0000 </r>
        <r>   -6.0099    1.0000 </r>
        <r>    0.3321    1.0000 </r>
        <r>    0.3823    1.0000 </r>
        <r>    1.8018    1.0000 </r>
        <r>    2.4934    1.0000 </r>
        <r>    2.8886    1.0000 </r>
        <r>    2.9126    1.0000 </r>
        <r>    7.9549    0.0000 </r>
        <r>    8.3207    0.0000 </r>
        <r>    8.4991    0.0000 </r>
        <r>   10.2888    0.0000 </r>
        <r>   10.7689    0.0000 </r>
        <r>   13.3767    0.0000 </r>
        <r>   14.0717    0.0000 </r>
        <r>   15.3873    0.0000 </r>
        <r>   15.4807    0.0000 </r>
        <r>   16.1134    0.0000 </r>
        <r>   16.2953    0.0000 </r>
        <r>   16.8858    0.0000 </r>
        <r>   17.3882    0.0000 </r>
        <r>   18.5372    0.0000 </r>
        <r>   18.6740    0.0000 </r>
        <r>   19.1969    0.0000 </r>
        <r>   19.8025    0.0000 </r>
        <r>   19.8437    0.0000 </r>
        <r>   19.9141    0.0000 </r>
        <r>   20.9900    0.0000 </r>
        <r>   21.0914    0.0000 </r>
        <r>   22.2300    0.0000 </r>
        <r>   22.8640    0.0000 </r>
       </set>
       <set comment="kpoint 10">
        <r>   -8.2038    1.0000 </r>
        <r>   -6.4812    1.0000 </r>
        <r>   -6.1175    1.0000 </r>
        <r>    0.4356    1.0000 </r>
        <r>    0.5423    1.0000 </r>
        <r>    1.8167    1.0000 </r>
        <r>    1.8530    1.0000 </r>
        <r>    2.6183    1.0000 </r>
        <r>    2.6670    1.0000 </r>
        <r>    8.1964    0.0000 </r>
        <r>    8.4965    0.0000 </r>
        <r>    9.0990    0.0000 </r>
        <r>   10.3238    0.0000 </r>
        <r>   11.7067    0.0000 </r>
        <r>   12.4053    0.0000 </r>
        <r>   14.3716    0.0000 </r>
        <r>   14.6843    0.0000 </r>
        <r>   15.2756    0.0000 </r>
        <r>   16.6526    0.0000 </r>
        <r>   16.7927    0.0000 </r>
        <r>   17.8689    0.0000 </r>
        <r>   17.8794    0.0000 </r>
        <r>   18.3745    0.0000 </r>
        <r>   18.5448    0.0000 </r>
        <r>   19.0573    0.0000 </r>
        <r>   19.1124    0.0000 </r>
        <r>   19.8521    0.0000 </r>
        <r>   20.2144    0.0000 </r>
        <r>   21.0407    0.0000 </r>
        <r>   21.1305    0.0000 </r>
        <r>   21.8827    0.0000 </r>
        <r>   22.2110    0.0000 </r>
       </set>
       <set comment="kpoint 11">
        <r>   -9.4172    1.0000 </r>
        <r>   -6.6645    1.0000 </r>
        <r>   -5.1340    1.0000 </r>
        <r>    2.0386    1.0000 </r>
        <r>    2.0469    1.0000 </r>
        <r>    2.5523    1.0000 </r>
        <r>    3.4779    1.0000 </r>
        <r>    3.4951    1.0000 </r>
        <r>    4.2785    1.0000 </r>
        <r>    6.6125    0.0000 </r>
        <r>    6.6434    0.0000 </r>
        <r>    7.1968    0.0000 </r>
        <r>   10.6419    0.0000 </r>
        <r>   11.2701    0.0000 </r>
        <r>   11.8267    0.0000 </r>
        <r>   12.0445    0.0000 </r>
        <r>   12.1245    0.0000 </r>
        <r>   12.3147    0.0000 </r>
        <r>   13.3571    0.0000 </r>
        <r>   13.3818    0.0000 </r>
        <r>   14.3254    0.0000 </r>
        <r>   15.1259    0.0000 </r>
        <r>   18.0830    0.0000 </r>
        <r>   19.6464    0.0000 </r>
        <r>   20.0710    0.0000 </r>
        <r>   21.1173    0.0000 </r>
        <r>   21.9558    0.0000 </r>
        <r>   22.0757    0.0000 </r>
        <r>   22.6188    0.0000 </r>
        <r>   23.3050    0.0000 </r>
        <r>   23.3966    0.0000 </r>
        <r>   24.9063    0.0000 </r>
       </set>
       <set comment="kpoint 12">
        <r>   -9.3061    1.0000 </r>
        <r>   -6.6219    1.0000 </r>
        <r>   -5.2095    1.0000 </r>
        <r>    1.2347    1.0000 </r>
        <r>    1.9485    1.0000 </r>
        <r>    2.1952    1.0000 </r>
        <r>    3.5318    1.0000 </r>
        <r>    3.9825    1.0000 </r>
        <r>    4.1838    1.0000 </r>
        <r>    6.5451    0.0000 </r>
        <r>    6.8336    0.0000 </r>
        <r>    7.3517    0.0000 </r>
        <r>   10.5703    0.0000 </r>
        <r>   10.9636    0.0000 </r>
        <r>   11.7195    0.0000 </r>
        <r>   12.1259    0.0000 </r>
        <r>   12.3040    0.0000 </r>
        <r>   13.1717    0.0000 </r>
        <r>   13.3585    0.0000 </r>
        <r>   14.1809    0.0000 </r>
        <r>   15.3518    0.0000 </r>
        <r>   15.8296    0.0000 </r>
        <r>   18.3374    0.0000 </r>
        <r>   18.4724    0.0000 </r>
        <r>   20.2683    0.0000 </r>
        <r>   20.8394    0.0000 </r>
        <r>   21.6536    0.0000 </r>
        <r>   22.0925    0.0000 </r>
        <r>   22.4885    0.0000 </r>
        <r>   22.9341    0.0000 </r>
        <r>   23.4714    0.0000 </r>
        <r>   23.7778    0.0000 </r>
       </set>
       <set comment="kpoint 13">
        <r>   -9.3051    1.0000 </r>
        <r>   -6.6379    1.0000 </r>
        <r>   -5.1809    1.0000 </r>
        <r>    1.3076    1.0000 </r>
        <r>    1.5592    1.0000 </r>
        <r>    2.1478    1.0000 </r>
        <r>    3.9470    1.0000 </r>
        <r>    4.1246    1.0000 </r>
        <r>    4.4805    1.0000 </r>
        <r>    6.4166    0.0000 </r>
        <r>    6.4491    0.0000 </r>
        <r>    7.1294    0.0000 </r>
        <r>   10.1751    0.0000 </r>
        <r>   11.3316    0.0000 </r>
        <r>   11.9769    0.0000 </r>
        <r>   12.3330    0.0000 </r>
        <r>   12.5392    0.0000 </r>
        <r>   13.1576    0.0000 </r>
        <r>   13.4696    0.0000 </r>
        <r>   13.7878    0.0000 </r>
        <r>   15.2873    0.0000 </r>
        <r>   15.6909    0.0000 </r>
        <r>   18.4308    0.0000 </r>
        <r>   18.7029    0.0000 </r>
        <r>   19.9437    0.0000 </r>
        <r>   20.4804    0.0000 </r>
        <r>   21.5423    0.0000 </r>
        <r>   22.1801    0.0000 </r>
        <r>   22.3589    0.0000 </r>
        <r>   23.1099    0.0000 </r>
        <r>   23.4598    0.0000 </r>
        <r>   23.9696    0.0000 </r>
       </set>
       <set comment="kpoint 14">
        <r>   -8.9954    1.0000 </r>
        <r>   -6.5156    1.0000 </r>
        <r>   -5.4803    1.0000 </r>
        <r>    0.5912    1.0000 </r>
        <r>    1.4058    1.0000 </r>
        <r>    1.7270    1.0000 </r>
        <r>    2.9370    1.0000 </r>
        <r>    3.8146    1.0000 </r>
        <r>    4.1367    1.0000 </r>
        <r>    6.8015    0.0000 </r>
        <r>    7.3217    0.0000 </r>
        <r>    8.0201    0.0000 </r>
        <r>   10.1568    0.0000 </r>
        <r>   11.0285    0.0000 </r>
        <r>   12.2076    0.0000 </r>
        <r>   12.3763    0.0000 </r>
        <r>   13.1195    0.0000 </r>
        <r>   13.8987    0.0000 </r>
        <r>   14.9510    0.0000 </r>
        <r>   15.5844    0.0000 </r>
        <r>   16.5121    0.0000 </r>
        <r>   17.5816    0.0000 </r>
        <r>   17.9922    0.0000 </r>
        <r>   18.9327    0.0000 </r>
        <r>   19.6166    0.0000 </r>
        <r>   19.7810    0.0000 </r>
        <r>   20.5540    0.0000 </r>
        <r>   20.6869    0.0000 </r>
        <r>   21.3247    0.0000 </r>
        <r>   22.2540    0.0000 </r>
        <r>   22.4350    0.0000 </r>
        <r>   22.7123    0.0000 </r>
       </set>
       <set comment="kpoint 15">
        <r>   -8.9878    1.0000 </r>
        <r>   -6.6318    1.0000 </r>
        <r>   -5.2978    1.0000 </r>
        <r>    0.2836    1.0000 </r>
        <r>    0.9113    1.0000 </r>
        <r>    1.6728    1.0000 </r>
        <r>    4.0893    1.0000 </r>
        <r>    4.3488    1.0000 </r>
        <r>    4.5837    1.0000 </r>
        <r>    6.3223    0.0000 </r>
        <r>    6.5964    0.0000 </r>
        <r>    7.1715    0.0000 </r>
        <r>    9.4115    0.0000 </r>
        <r>   11.6592    0.0000 </r>
        <r>   12.6829    0.0000 </r>
        <r>   13.3111    0.0000 </r>
        <r>   13.6128    0.0000 </r>
        <r>   14.1916    0.0000 </r>
        <r>   14.6052    0.0000 </r>
        <r>   15.5356    0.0000 </r>
        <r>   16.4768    0.0000 </r>
        <r>   16.8444    0.0000 </r>
        <r>   17.8719    0.0000 </r>
        <r>   18.8384    0.0000 </r>
        <r>   19.3456    0.0000 </r>
        <r>   19.5465    0.0000 </r>
        <r>   20.0023    0.0000 </r>
        <r>   20.3738    0.0000 </r>
        <r>   20.6095    0.0000 </r>
        <r>   22.9662    0.0000 </r>
        <r>   23.1388    0.0000 </r>
        <r>   23.4535    0.0000 </r>
       </set>
       <set comment="kpoint 16">
        <r>   -8.5748    1.0000 </r>
        <r>   -6.5441    1.0000 </r>
        <r>   -5.7516    1.0000 </r>
        <r>    0.3684    1.0000 </r>
        <r>    0.8287    1.0000 </r>
        <r>    1.5797    1.0000 </r>
        <r>    1.8009    1.0000 </r>
        <r>    3.9496    1.0000 </r>
        <r>    4.0990    1.0000 </r>
        <r>    6.6802    0.0000 </r>
        <r>    7.2015    0.0000 </r>
        <r>    9.2251    0.0000 </r>
        <r>    9.4394    0.0000 </r>
        <r>   12.1063    0.0000 </r>
        <r>   13.2017    0.0000 </r>
        <r>   13.3560    0.0000 </r>
        <r>   14.3241    0.0000 </r>
        <r>   14.9640    0.0000 </r>
        <r>   15.7744    0.0000 </r>
        <r>   16.9169    0.0000 </r>
        <r>   17.0393    0.0000 </r>
        <r>   17.4554    0.0000 </r>
        <r>   17.8325    0.0000 </r>
        <r>   18.8756    0.0000 </r>
        <r>   19.3950    0.0000 </r>
        <r>   19.5472    0.0000 </r>
        <r>   20.1873    0.0000 </r>
        <r>   20.5215    0.0000 </r>
        <r>   20.6904    0.0000 </r>
        <r>   20.7643    0.0000 </r>
        <r>   21.1850    0.0000 </r>
        <r>   21.5468    0.0000 </r>
       </set>
       <set comment="kpoint 17">
        <r>   -8.5551    1.0000 </r>
        <r>   -6.7494    1.0000 </r>
        <r>   -5.4685    1.0000 </r>
        <r>   -0.1394    1.0000 </r>
        <r>    0.4748    1.0000 </r>
        <r>    1.3523    1.0000 </r>
        <r>    3.2882    1.0000 </r>
        <r>    4.1146    1.0000 </r>
        <r>    4.2113    1.0000 </r>
        <r>    6.5423    0.0000 </r>
        <r>    6.8527    0.0000 </r>
        <r>    8.2205    0.0000 </r>
        <r>    9.0011    0.0000 </r>
        <r>   12.5557    0.0000 </r>
        <r>   13.6432    0.0000 </r>
        <r>   14.2384    0.0000 </r>
        <r>   15.2251    0.0000 </r>
        <r>   15.3711    0.0000 </r>
        <r>   15.6726    0.0000 </r>
        <r>   16.6433    0.0000 </r>
        <r>   17.2105    0.0000 </r>
        <r>   17.5242    0.0000 </r>
        <r>   17.5788    0.0000 </r>
        <r>   18.0435    0.0000 </r>
        <r>   18.3550    0.0000 </r>
        <r>   18.7070    0.0000 </r>
        <r>   19.2464    0.0000 </r>
        <r>   19.5860    0.0000 </r>
        <r>   21.0124    0.0000 </r>
        <r>   21.3732    0.0000 </r>
        <r>   21.7790    0.0000 </r>
        <r>   21.9393    0.0000 </r>
       </set>
       <set comment="kpoint 18">
        <r>   -8.3140    1.0000 </r>
        <r>   -6.8020    1.0000 </r>
        <r>   -5.6644    1.0000 </r>
        <r>    0.1365    1.0000 </r>
        <r>    0.3357    1.0000 </r>
        <r>    1.3009    1.0000 </r>
        <r>    2.2049    1.0000 </r>
        <r>    4.0419    1.0000 </r>
        <r>    4.0620    1.0000 </r>
        <r>    6.5941    0.0000 </r>
        <r>    7.0305    0.0000 </r>
        <r>    9.0230    0.0000 </r>
        <r>    9.2366    0.0000 </r>
        <r>   13.1504    0.0000 </r>
        <r>   14.2680    0.0000 </r>
        <r>   14.7532    0.0000 </r>
        <r>   15.0167    0.0000 </r>
        <r>   15.1462    0.0000 </r>
        <r>   16.1753    0.0000 </r>
        <r>   16.5134    0.0000 </r>
        <r>   16.5709    0.0000 </r>
        <r>   17.5291    0.0000 </r>
        <r>   17.7667    0.0000 </r>
        <r>   18.1633    0.0000 </r>
        <r>   18.7909    0.0000 </r>
        <r>   19.2324    0.0000 </r>
        <r>   19.5822    0.0000 </r>
        <r>   20.0778    0.0000 </r>
        <r>   20.2518    0.0000 </r>
        <r>   20.6559    0.0000 </r>
        <r>   21.5077    0.0000 </r>
        <r>   22.0729    0.0000 </r>
       </set>
       <set comment="kpoint 19">
        <r>   -9.0921    1.0000 </r>
        <r>   -6.5825    1.0000 </r>
        <r>   -5.3278    1.0000 </r>
        <r>    0.6890    1.0000 </r>
        <r>    1.0336    1.0000 </r>
        <r>    2.1294    1.0000 </r>
        <r>    3.5623    1.0000 </r>
        <r>    3.7355    1.0000 </r>
        <r>    4.6634    1.0000 </r>
        <r>    6.5245    0.0000 </r>
        <r>    7.0808    0.0000 </r>
        <r>    7.3267    0.0000 </r>
        <r>   10.1196    0.0000 </r>
        <r>   10.7752    0.0000 </r>
        <r>   12.4471    0.0000 </r>
        <r>   12.7173    0.0000 </r>
        <r>   12.9772    0.0000 </r>
        <r>   13.7867    0.0000 </r>
        <r>   14.3821    0.0000 </r>
        <r>   15.0414    0.0000 </r>
        <r>   16.3741    0.0000 </r>
        <r>   16.8081    0.0000 </r>
        <r>   17.8575    0.0000 </r>
        <r>   18.9040    0.0000 </r>
        <r>   19.2417    0.0000 </r>
        <r>   19.8865    0.0000 </r>
        <r>   20.8349    0.0000 </r>
        <r>   21.1961    0.0000 </r>
        <r>   22.0723    0.0000 </r>
        <r>   22.3752    0.0000 </r>
        <r>   23.1002    0.0000 </r>
        <r>   23.5518    0.0000 </r>
       </set>
       <set comment="kpoint 20">
        <r>   -8.7181    1.0000 </r>
        <r>   -6.5131    1.0000 </r>
        <r>   -5.6585    1.0000 </r>
        <r>    0.3034    1.0000 </r>
        <r>    0.7782    1.0000 </r>
        <r>    1.8906    1.0000 </r>
        <r>    2.4612    1.0000 </r>
        <r>    3.1704    1.0000 </r>
        <r>    4.5654    1.0000 </r>
        <r>    6.6522    0.0000 </r>
        <r>    7.6075    0.0000 </r>
        <r>    8.5945    0.0000 </r>
        <r>    9.9964    0.0000 </r>
        <r>   10.8915    0.0000 </r>
        <r>   12.8046    0.0000 </r>
        <r>   13.4640    0.0000 </r>
        <r>   13.7870    0.0000 </r>
        <r>   15.1836    0.0000 </r>
        <r>   15.6297    0.0000 </r>
        <r>   16.0490    0.0000 </r>
        <r>   16.8579    0.0000 </r>
        <r>   17.4025    0.0000 </r>
        <r>   18.1643    0.0000 </r>
        <r>   18.8559    0.0000 </r>
        <r>   19.3140    0.0000 </r>
        <r>   19.4424    0.0000 </r>
        <r>   20.1779    0.0000 </r>
        <r>   20.4728    0.0000 </r>
        <r>   20.9962    0.0000 </r>
        <r>   21.4733    0.0000 </r>
        <r>   22.1613    0.0000 </r>
        <r>   22.4489    0.0000 </r>
       </set>
       <set comment="kpoint 21">
        <r>   -8.7094    1.0000 </r>
        <r>   -6.6291    1.0000 </r>
        <r>   -5.4956    1.0000 </r>
        <r>    0.0159    1.0000 </r>
        <r>    0.6464    1.0000 </r>
        <r>    1.6184    1.0000 </r>
        <r>    3.2408    1.0000 </r>
        <r>    3.7608    1.0000 </r>
        <r>    4.2110    1.0000 </r>
        <r>    6.8653    0.0000 </r>
        <r>    7.4654    0.0000 </r>
        <r>    7.6532    0.0000 </r>
        <r>    9.6004    0.0000 </r>
        <r>   11.1551    0.0000 </r>
        <r>   13.5700    0.0000 </r>
        <r>   13.9904    0.0000 </r>
        <r>   14.2655    0.0000 </r>
        <r>   14.6396    0.0000 </r>
        <r>   15.5464    0.0000 </r>
        <r>   16.4286    0.0000 </r>
        <r>   16.9646    0.0000 </r>
        <r>   17.4822    0.0000 </r>
        <r>   17.6082    0.0000 </r>
        <r>   18.2784    0.0000 </r>
        <r>   18.8010    0.0000 </r>
        <r>   19.1079    0.0000 </r>
        <r>   20.1315    0.0000 </r>
        <r>   20.4412    0.0000 </r>
        <r>   20.8221    0.0000 </r>
        <r>   21.2444    0.0000 </r>
        <r>   22.3655    0.0000 </r>
        <r>   22.6691    0.0000 </r>
       </set>
       <set comment="kpoint 22">
        <r>   -8.3411    1.0000 </r>
        <r>   -6.6542    1.0000 </r>
        <r>   -5.8187    1.0000 </r>
        <r>    0.1792    1.0000 </r>
        <r>    0.5670    1.0000 </r>
        <r>    1.4721    1.0000 </r>
        <r>    2.0428    1.0000 </r>
        <r>    2.9820    1.0000 </r>
        <r>    4.3593    1.0000 </r>
        <r>    6.7443    0.0000 </r>
        <r>    7.7393    0.0000 </r>
        <r>    9.2843    0.0000 </r>
        <r>    9.6000    0.0000 </r>
        <r>   12.1057    0.0000 </r>
        <r>   13.5634    0.0000 </r>
        <r>   13.9906    0.0000 </r>
        <r>   14.7943    0.0000 </r>
        <r>   15.2405    0.0000 </r>
        <r>   16.0698    0.0000 </r>
        <r>   16.9569    0.0000 </r>
        <r>   17.3114    0.0000 </r>
        <r>   17.7063    0.0000 </r>
        <r>   18.0440    0.0000 </r>
        <r>   18.2007    0.0000 </r>
        <r>   18.5238    0.0000 </r>
        <r>   19.0988    0.0000 </r>
        <r>   19.7107    0.0000 </r>
        <r>   20.3011    0.0000 </r>
        <r>   21.3163    0.0000 </r>
        <r>   21.6074    0.0000 </r>
        <r>   22.0184    0.0000 </r>
        <r>   22.4783    0.0000 </r>
       </set>
       <set comment="kpoint 23">
        <r>   -8.3282    1.0000 </r>
        <r>   -6.7604    1.0000 </r>
        <r>   -5.6847    1.0000 </r>
        <r>   -0.0572    1.0000 </r>
        <r>    0.4499    1.0000 </r>
        <r>    1.3501    1.0000 </r>
        <r>    2.7368    1.0000 </r>
        <r>    3.0430    1.0000 </r>
        <r>    4.1939    1.0000 </r>
        <r>    6.8372    0.0000 </r>
        <r>    7.7218    0.0000 </r>
        <r>    8.6938    0.0000 </r>
        <r>    9.4453    0.0000 </r>
        <r>   12.2656    0.0000 </r>
        <r>   13.7546    0.0000 </r>
        <r>   14.7693    0.0000 </r>
        <r>   15.0970    0.0000 </r>
        <r>   15.4757    0.0000 </r>
        <r>   15.8553    0.0000 </r>
        <r>   16.5875    0.0000 </r>
        <r>   17.0091    0.0000 </r>
        <r>   17.4402    0.0000 </r>
        <r>   17.6732    0.0000 </r>
        <r>   18.3130    0.0000 </r>
        <r>   18.9639    0.0000 </r>
        <r>   19.1987    0.0000 </r>
        <r>   19.7657    0.0000 </r>
        <r>   20.1959    0.0000 </r>
        <r>   20.5183    0.0000 </r>
        <r>   20.9390    0.0000 </r>
        <r>   21.3120    0.0000 </r>
        <r>   22.3909    0.0000 </r>
       </set>
       <set comment="kpoint 24">
        <r>   -8.3544    1.0000 </r>
        <r>   -6.6027    1.0000 </r>
        <r>   -5.8502    1.0000 </r>
        <r>   -0.0048    1.0000 </r>
        <r>    0.6796    1.0000 </r>
        <r>    1.6349    1.0000 </r>
        <r>    2.0877    1.0000 </r>
        <r>    3.0219    1.0000 </r>
        <r>    3.7713    1.0000 </r>
        <r>    7.6073    0.0000 </r>
        <r>    7.9702    0.0000 </r>
        <r>    8.7404    0.0000 </r>
        <r>   10.3814    0.0000 </r>
        <r>   10.8226    0.0000 </r>
        <r>   13.5345    0.0000 </r>
        <r>   14.0442    0.0000 </r>
        <r>   14.7138    0.0000 </r>
        <r>   15.1443    0.0000 </r>
        <r>   16.0339    0.0000 </r>
        <r>   16.7778    0.0000 </r>
        <r>   17.2374    0.0000 </r>
        <r>   17.6252    0.0000 </r>
        <r>   17.7951    0.0000 </r>
        <r>   18.1505    0.0000 </r>
        <r>   19.0064    0.0000 </r>
        <r>   20.0867    0.0000 </r>
        <r>   20.4051    0.0000 </r>
        <r>   20.8131    0.0000 </r>
        <r>   21.0055    0.0000 </r>
        <r>   21.4147    0.0000 </r>
        <r>   21.6585    0.0000 </r>
        <r>   21.8946    0.0000 </r>
       </set>
       <set comment="kpoint 25">
        <r>   -8.1597    1.0000 </r>
        <r>   -6.6403    1.0000 </r>
        <r>   -5.9971    1.0000 </r>
        <r>    0.0830    1.0000 </r>
        <r>    0.5897    1.0000 </r>
        <r>    1.5227    1.0000 </r>
        <r>    1.9874    1.0000 </r>
        <r>    2.6639    1.0000 </r>
        <r>    3.4972    1.0000 </r>
        <r>    7.8413    0.0000 </r>
        <r>    8.4968    0.0000 </r>
        <r>    8.8596    0.0000 </r>
        <r>   10.4022    0.0000 </r>
        <r>   11.7544    0.0000 </r>
        <r>   12.3879    0.0000 </r>
        <r>   14.2778    0.0000 </r>
        <r>   15.0223    0.0000 </r>
        <r>   15.4120    0.0000 </r>
        <r>   15.6617    0.0000 </r>
        <r>   16.7214    0.0000 </r>
        <r>   17.3384    0.0000 </r>
        <r>   18.0207    0.0000 </r>
        <r>   18.3509    0.0000 </r>
        <r>   18.7388    0.0000 </r>
        <r>   19.3120    0.0000 </r>
        <r>   19.7724    0.0000 </r>
        <r>   20.1153    0.0000 </r>
        <r>   20.3669    0.0000 </r>
        <r>   20.9477    0.0000 </r>
        <r>   21.5006    0.0000 </r>
        <r>   21.8501    0.0000 </r>
        <r>   22.4139    0.0000 </r>
       </set>
       <set comment="kpoint 26">
        <r>   -9.2341    1.0000 </r>
        <r>   -7.3673    1.0000 </r>
        <r>   -4.4167    1.0000 </r>
        <r>    1.6465    1.0000 </r>
        <r>    2.1351    1.0000 </r>
        <r>    2.5860    1.0000 </r>
        <r>    3.5953    1.0000 </r>
        <r>    3.6835    1.0000 </r>
        <r>    4.2546    1.0000 </r>
        <r>    6.3610    0.0000 </r>
        <r>    6.4250    0.0000 </r>
        <r>    6.8134    0.0000 </r>
        <r>   10.3070    0.0000 </r>
        <r>   11.3642    0.0000 </r>
        <r>   11.7835    0.0000 </r>
        <r>   12.0489    0.0000 </r>
        <r>   12.6131    0.0000 </r>
        <r>   12.8393    0.0000 </r>
        <r>   13.9550    0.0000 </r>
        <r>   14.2733    0.0000 </r>
        <r>   14.3952    0.0000 </r>
        <r>   15.5177    0.0000 </r>
        <r>   18.0128    0.0000 </r>
        <r>   18.5652    0.0000 </r>
        <r>   19.4475    0.0000 </r>
        <r>   19.9422    0.0000 </r>
        <r>   20.3829    0.0000 </r>
        <r>   20.5401    0.0000 </r>
        <r>   21.0686    0.0000 </r>
        <r>   24.8268    0.0000 </r>
        <r>   24.8909    0.0000 </r>
        <r>   25.8462    0.0000 </r>
       </set>
       <set comment="kpoint 27">
        <r>   -9.1266    1.0000 </r>
        <r>   -7.2989    1.0000 </r>
        <r>   -4.5677    1.0000 </r>
        <r>    1.2632    1.0000 </r>
        <r>    1.9467    1.0000 </r>
        <r>    2.4220    1.0000 </r>
        <r>    3.3328    1.0000 </r>
        <r>    3.7250    1.0000 </r>
        <r>    3.8896    1.0000 </r>
        <r>    6.7262    0.0000 </r>
        <r>    6.8454    0.0000 </r>
        <r>    7.2546    0.0000 </r>
        <r>   10.4122    0.0000 </r>
        <r>   11.3801    0.0000 </r>
        <r>   11.4864    0.0000 </r>
        <r>   12.0042    0.0000 </r>
        <r>   12.4356    0.0000 </r>
        <r>   13.2042    0.0000 </r>
        <r>   14.2127    0.0000 </r>
        <r>   14.7817    0.0000 </r>
        <r>   15.2225    0.0000 </r>
        <r>   16.5685    0.0000 </r>
        <r>   17.0272    0.0000 </r>
        <r>   18.7729    0.0000 </r>
        <r>   19.2930    0.0000 </r>
        <r>   20.1559    0.0000 </r>
        <r>   20.1763    0.0000 </r>
        <r>   21.0706    0.0000 </r>
        <r>   22.4279    0.0000 </r>
        <r>   23.1420    0.0000 </r>
        <r>   23.3031    0.0000 </r>
        <r>   24.0047    0.0000 </r>
       </set>
       <set comment="kpoint 28">
        <r>   -9.1245    1.0000 </r>
        <r>   -7.3101    1.0000 </r>
        <r>   -4.5364    1.0000 </r>
        <r>    1.2917    1.0000 </r>
        <r>    1.5090    1.0000 </r>
        <r>    2.2486    1.0000 </r>
        <r>    3.9360    1.0000 </r>
        <r>    3.9946    1.0000 </r>
        <r>    4.2458    1.0000 </r>
        <r>    6.3295    0.0000 </r>
        <r>    6.3551    0.0000 </r>
        <r>    7.2316    0.0000 </r>
        <r>    9.9988    0.0000 </r>
        <r>   11.5029    0.0000 </r>
        <r>   11.7192    0.0000 </r>
        <r>   12.2882    0.0000 </r>
        <r>   12.9530    0.0000 </r>
        <r>   13.3877    0.0000 </r>
        <r>   14.2093    0.0000 </r>
        <r>   14.5363    0.0000 </r>
        <r>   14.7983    0.0000 </r>
        <r>   16.5514    0.0000 </r>
        <r>   17.2051    0.0000 </r>
        <r>   18.4168    0.0000 </r>
        <r>   18.9408    0.0000 </r>
        <r>   20.1807    0.0000 </r>
        <r>   20.6659    0.0000 </r>
        <r>   21.0436    0.0000 </r>
        <r>   22.3730    0.0000 </r>
        <r>   23.0179    0.0000 </r>
        <r>   23.4161    0.0000 </r>
        <r>   23.7039    0.0000 </r>
       </set>
       <set comment="kpoint 29">
        <r>   -8.8298    1.0000 </r>
        <r>   -7.1086    1.0000 </r>
        <r>   -5.0260    1.0000 </r>
        <r>    0.8703    1.0000 </r>
        <r>    1.4235    1.0000 </r>
        <r>    2.0846    1.0000 </r>
        <r>    2.4616    1.0000 </r>
        <r>    3.3445    1.0000 </r>
        <r>    3.8385    1.0000 </r>
        <r>    7.0994    0.0000 </r>
        <r>    7.6662    0.0000 </r>
        <r>    8.2909    0.0000 </r>
        <r>   10.6047    0.0000 </r>
        <r>   11.1778    0.0000 </r>
        <r>   11.7309    0.0000 </r>
        <r>   12.3235    0.0000 </r>
        <r>   12.8842    0.0000 </r>
        <r>   13.1883    0.0000 </r>
        <r>   14.8489    0.0000 </r>
        <r>   16.3130    0.0000 </r>
        <r>   16.7087    0.0000 </r>
        <r>   17.1923    0.0000 </r>
        <r>   17.9846    0.0000 </r>
        <r>   18.6420    0.0000 </r>
        <r>   18.9998    0.0000 </r>
        <r>   20.2876    0.0000 </r>
        <r>   20.6342    0.0000 </r>
        <r>   20.8679    0.0000 </r>
        <r>   21.2997    0.0000 </r>
        <r>   21.8523    0.0000 </r>
        <r>   22.1024    0.0000 </r>
        <r>   22.7598    0.0000 </r>
       </set>
       <set comment="kpoint 30">
        <r>   -8.8135    1.0000 </r>
        <r>   -7.1944    1.0000 </r>
        <r>   -4.8452    1.0000 </r>
        <r>    0.2859    1.0000 </r>
        <r>    0.8708    1.0000 </r>
        <r>    1.7934    1.0000 </r>
        <r>    3.8788    1.0000 </r>
        <r>    4.0035    1.0000 </r>
        <r>    4.9114    1.0000 </r>
        <r>    6.2582    0.0000 </r>
        <r>    6.8751    0.0000 </r>
        <r>    7.0213    0.0000 </r>
        <r>    9.4621    0.0000 </r>
        <r>   12.2153    0.0000 </r>
        <r>   12.4293    0.0000 </r>
        <r>   12.9463    0.0000 </r>
        <r>   13.6624    0.0000 </r>
        <r>   14.4580    0.0000 </r>
        <r>   14.9447    0.0000 </r>
        <r>   15.3839    0.0000 </r>
        <r>   16.3312    0.0000 </r>
        <r>   16.8434    0.0000 </r>
        <r>   17.3633    0.0000 </r>
        <r>   17.7770    0.0000 </r>
        <r>   18.7876    0.0000 </r>
        <r>   20.0288    0.0000 </r>
        <r>   20.1427    0.0000 </r>
        <r>   21.0531    0.0000 </r>
        <r>   21.6939    0.0000 </r>
        <r>   22.1260    0.0000 </r>
        <r>   22.2373    0.0000 </r>
        <r>   23.0559    0.0000 </r>
       </set>
       <set comment="kpoint 31">
        <r>   -8.4362    1.0000 </r>
        <r>   -6.9202    1.0000 </r>
        <r>   -5.5593    1.0000 </r>
        <r>    0.3500    1.0000 </r>
        <r>    0.8109    1.0000 </r>
        <r>    1.6119    1.0000 </r>
        <r>    2.3673    1.0000 </r>
        <r>    3.3701    1.0000 </r>
        <r>    3.7559    1.0000 </r>
        <r>    7.0770    0.0000 </r>
        <r>    7.7791    0.0000 </r>
        <r>    8.9947    0.0000 </r>
        <r>   10.0450    0.0000 </r>
        <r>   11.7480    0.0000 </r>
        <r>   12.7134    0.0000 </r>
        <r>   13.3549    0.0000 </r>
        <r>   13.9228    0.0000 </r>
        <r>   14.0962    0.0000 </r>
        <r>   15.2220    0.0000 </r>
        <r>   17.3659    0.0000 </r>
        <r>   17.5833    0.0000 </r>
        <r>   17.8361    0.0000 </r>
        <r>   18.0819    0.0000 </r>
        <r>   18.4032    0.0000 </r>
        <r>   18.9369    0.0000 </r>
        <r>   19.5028    0.0000 </r>
        <r>   19.7502    0.0000 </r>
        <r>   20.0531    0.0000 </r>
        <r>   20.7253    0.0000 </r>
        <r>   21.8020    0.0000 </r>
        <r>   22.0033    0.0000 </r>
        <r>   22.4146    0.0000 </r>
       </set>
       <set comment="kpoint 32">
        <r>   -8.3949    1.0000 </r>
        <r>   -7.1178    1.0000 </r>
        <r>   -5.2651    1.0000 </r>
        <r>   -0.3890    1.0000 </r>
        <r>    0.5899    1.0000 </r>
        <r>    1.4855    1.0000 </r>
        <r>    3.6394    1.0000 </r>
        <r>    3.6895    1.0000 </r>
        <r>    4.4314    1.0000 </r>
        <r>    6.6565    0.0000 </r>
        <r>    7.2768    0.0000 </r>
        <r>    7.4813    0.0000 </r>
        <r>    9.3538    0.0000 </r>
        <r>   12.7536    0.0000 </r>
        <r>   13.4557    0.0000 </r>
        <r>   14.0864    0.0000 </r>
        <r>   14.5227    0.0000 </r>
        <r>   14.9949    0.0000 </r>
        <r>   16.0517    0.0000 </r>
        <r>   16.2921    0.0000 </r>
        <r>   16.7071    0.0000 </r>
        <r>   17.4680    0.0000 </r>
        <r>   17.7206    0.0000 </r>
        <r>   17.9065    0.0000 </r>
        <r>   18.6262    0.0000 </r>
        <r>   19.1947    0.0000 </r>
        <r>   19.4422    0.0000 </r>
        <r>   19.7476    0.0000 </r>
        <r>   20.4167    0.0000 </r>
        <r>   20.4939    0.0000 </r>
        <r>   22.5028    0.0000 </r>
        <r>   23.0303    0.0000 </r>
       </set>
       <set comment="kpoint 33">
        <r>   -8.1848    1.0000 </r>
        <r>   -7.0100    1.0000 </r>
        <r>   -5.6285    1.0000 </r>
        <r>   -0.3220    1.0000 </r>
        <r>    0.5779    1.0000 </r>
        <r>    1.4032    1.0000 </r>
        <r>    3.1133    1.0000 </r>
        <r>    3.4563    1.0000 </r>
        <r>    3.7702    1.0000 </r>
        <r>    6.9074    0.0000 </r>
        <r>    7.6528    0.0000 </r>
        <r>    8.4066    0.0000 </r>
        <r>    9.5892    0.0000 </r>
        <r>   12.3578    0.0000 </r>
        <r>   14.2547    0.0000 </r>
        <r>   14.6078    0.0000 </r>
        <r>   15.0327    0.0000 </r>
        <r>   15.1110    0.0000 </r>
        <r>   15.5714    0.0000 </r>
        <r>   15.9777    0.0000 </r>
        <r>   16.5124    0.0000 </r>
        <r>   17.2048    0.0000 </r>
        <r>   17.8567    0.0000 </r>
        <r>   18.5813    0.0000 </r>
        <r>   18.8174    0.0000 </r>
        <r>   19.3125    0.0000 </r>
        <r>   19.8889    0.0000 </r>
        <r>   20.2661    0.0000 </r>
        <r>   20.7287    0.0000 </r>
        <r>   21.1779    0.0000 </r>
        <r>   21.3796    0.0000 </r>
        <r>   21.9295    0.0000 </r>
       </set>
       <set comment="kpoint 34">
        <r>   -8.9186    1.0000 </r>
        <r>   -7.1960    1.0000 </r>
        <r>   -4.8137    1.0000 </r>
        <r>    0.7892    1.0000 </r>
        <r>    1.1520    1.0000 </r>
        <r>    2.0949    1.0000 </r>
        <r>    3.0793    1.0000 </r>
        <r>    3.8548    1.0000 </r>
        <r>    4.4176    1.0000 </r>
        <r>    6.6111    0.0000 </r>
        <r>    7.1971    0.0000 </r>
        <r>    7.5126    0.0000 </r>
        <r>   10.0730    0.0000 </r>
        <r>   11.3749    0.0000 </r>
        <r>   11.9546    0.0000 </r>
        <r>   12.3429    0.0000 </r>
        <r>   13.4350    0.0000 </r>
        <r>   13.7148    0.0000 </r>
        <r>   14.6012    0.0000 </r>
        <r>   15.2838    0.0000 </r>
        <r>   16.2140    0.0000 </r>
        <r>   16.9587    0.0000 </r>
        <r>   17.3048    0.0000 </r>
        <r>   18.1886    0.0000 </r>
        <r>   19.5967    0.0000 </r>
        <r>   19.7259    0.0000 </r>
        <r>   20.6194    0.0000 </r>
        <r>   21.0208    0.0000 </r>
        <r>   21.9174    0.0000 </r>
        <r>   22.5784    0.0000 </r>
        <r>   22.6847    0.0000 </r>
        <r>   23.3437    0.0000 </r>
       </set>
       <set comment="kpoint 35">
        <r>   -8.5644    1.0000 </r>
        <r>   -7.0007    1.0000 </r>
        <r>   -5.3355    1.0000 </r>
        <r>    0.3736    1.0000 </r>
        <r>    0.8631    1.0000 </r>
        <r>    1.8422    1.0000 </r>
        <r>    2.1823    1.0000 </r>
        <r>    3.3480    1.0000 </r>
        <r>    4.5657    1.0000 </r>
        <r>    6.7277    0.0000 </r>
        <r>    7.6357    0.0000 </r>
        <r>    8.7243    0.0000 </r>
        <r>   10.3981    0.0000 </r>
        <r>   11.0270    0.0000 </r>
        <r>   12.3425    0.0000 </r>
        <r>   13.2121    0.0000 </r>
        <r>   13.6483    0.0000 </r>
        <r>   14.5410    0.0000 </r>
        <r>   15.0491    0.0000 </r>
        <r>   16.4587    0.0000 </r>
        <r>   17.0372    0.0000 </r>
        <r>   17.3612    0.0000 </r>
        <r>   18.1710    0.0000 </r>
        <r>   18.6034    0.0000 </r>
        <r>   19.2717    0.0000 </r>
        <r>   19.7294    0.0000 </r>
        <r>   20.4206    0.0000 </r>
        <r>   20.7602    0.0000 </r>
        <r>   21.0341    0.0000 </r>
        <r>   21.5702    0.0000 </r>
        <r>   21.9415    0.0000 </r>
        <r>   22.4411    0.0000 </r>
       </set>
       <set comment="kpoint 36">
        <r>   -8.5460    1.0000 </r>
        <r>   -7.0936    1.0000 </r>
        <r>   -5.1805    1.0000 </r>
        <r>   -0.0981    1.0000 </r>
        <r>    0.7419    1.0000 </r>
        <r>    1.6690    1.0000 </r>
        <r>    2.6445    1.0000 </r>
        <r>    4.2483    1.0000 </r>
        <r>    4.9052    1.0000 </r>
        <r>    6.3301    0.0000 </r>
        <r>    7.0462    0.0000 </r>
        <r>    7.9423    0.0000 </r>
        <r>    9.7864    0.0000 </r>
        <r>   11.6824    0.0000 </r>
        <r>   12.8026    0.0000 </r>
        <r>   13.6619    0.0000 </r>
        <r>   14.5705    0.0000 </r>
        <r>   15.0010    0.0000 </r>
        <r>   15.2405    0.0000 </r>
        <r>   15.8289    0.0000 </r>
        <r>   16.4724    0.0000 </r>
        <r>   17.2567    0.0000 </r>
        <r>   17.9718    0.0000 </r>
        <r>   18.3037    0.0000 </r>
        <r>   18.8951    0.0000 </r>
        <r>   19.4743    0.0000 </r>
        <r>   19.7646    0.0000 </r>
        <r>   20.3902    0.0000 </r>
        <r>   20.6736    0.0000 </r>
        <r>   22.2794    0.0000 </r>
        <r>   22.5631    0.0000 </r>
        <r>   22.9150    0.0000 </r>
       </set>
       <set comment="kpoint 37">
        <r>   -8.2128    1.0000 </r>
        <r>   -6.9207    1.0000 </r>
        <r>   -5.7102    1.0000 </r>
        <r>   -0.0070    1.0000 </r>
        <r>    0.3430    1.0000 </r>
        <r>    1.5717    1.0000 </r>
        <r>    2.4479    1.0000 </r>
        <r>    3.0898    1.0000 </r>
        <r>    4.5803    1.0000 </r>
        <r>    6.6290    0.0000 </r>
        <r>    7.9992    0.0000 </r>
        <r>    8.7678    0.0000 </r>
        <r>    9.9974    0.0000 </r>
        <r>   11.9906    0.0000 </r>
        <r>   13.0778    0.0000 </r>
        <r>   13.8005    0.0000 </r>
        <r>   14.4831    0.0000 </r>
        <r>   15.2562    0.0000 </r>
        <r>   15.9028    0.0000 </r>
        <r>   16.3804    0.0000 </r>
        <r>   16.8474    0.0000 </r>
        <r>   17.3691    0.0000 </r>
        <r>   18.2056    0.0000 </r>
        <r>   18.5800    0.0000 </r>
        <r>   19.2099    0.0000 </r>
        <r>   19.5394    0.0000 </r>
        <r>   19.9594    0.0000 </r>
        <r>   20.3700    0.0000 </r>
        <r>   21.4085    0.0000 </r>
        <r>   21.5589    0.0000 </r>
        <r>   22.0283    0.0000 </r>
        <r>   22.6069    0.0000 </r>
       </set>
       <set comment="kpoint 38">
        <r>   -8.1858    1.0000 </r>
        <r>   -7.0386    1.0000 </r>
        <r>   -5.5612    1.0000 </r>
        <r>   -0.3944    1.0000 </r>
        <r>    0.4299    1.0000 </r>
        <r>    1.5166    1.0000 </r>
        <r>    2.4910    1.0000 </r>
        <r>    3.8010    1.0000 </r>
        <r>    4.5772    1.0000 </r>
        <r>    6.5515    0.0000 </r>
        <r>    7.7592    0.0000 </r>
        <r>    8.1105    0.0000 </r>
        <r>    9.8175    0.0000 </r>
        <r>   12.5116    0.0000 </r>
        <r>   13.1188    0.0000 </r>
        <r>   14.4560    0.0000 </r>
        <r>   14.8139    0.0000 </r>
        <r>   15.0964    0.0000 </r>
        <r>   16.0084    0.0000 </r>
        <r>   16.6743    0.0000 </r>
        <r>   16.7797    0.0000 </r>
        <r>   17.4197    0.0000 </r>
        <r>   17.8694    0.0000 </r>
        <r>   18.0217    0.0000 </r>
        <r>   18.6150    0.0000 </r>
        <r>   19.3969    0.0000 </r>
        <r>   19.8020    0.0000 </r>
        <r>   20.5427    0.0000 </r>
        <r>   21.0215    0.0000 </r>
        <r>   21.3141    0.0000 </r>
        <r>   21.8489    0.0000 </r>
        <r>   22.0498    0.0000 </r>
       </set>
       <set comment="kpoint 39">
        <r>   -8.2139    1.0000 </r>
        <r>   -6.9541    1.0000 </r>
        <r>   -5.6387    1.0000 </r>
        <r>   -0.1995    1.0000 </r>
        <r>    0.4968    1.0000 </r>
        <r>    1.2931    1.0000 </r>
        <r>    2.2325    1.0000 </r>
        <r>    3.7653    1.0000 </r>
        <r>    4.6396    1.0000 </r>
        <r>    6.8290    0.0000 </r>
        <r>    7.5864    0.0000 </r>
        <r>    8.6887    0.0000 </r>
        <r>   10.5700    0.0000 </r>
        <r>   11.0732    0.0000 </r>
        <r>   13.2480    0.0000 </r>
        <r>   13.7195    0.0000 </r>
        <r>   14.7156    0.0000 </r>
        <r>   15.0182    0.0000 </r>
        <r>   15.8348    0.0000 </r>
        <r>   16.2243    0.0000 </r>
        <r>   16.9324    0.0000 </r>
        <r>   17.3441    0.0000 </r>
        <r>   17.8301    0.0000 </r>
        <r>   19.0518    0.0000 </r>
        <r>   19.2433    0.0000 </r>
        <r>   20.1211    0.0000 </r>
        <r>   20.3517    0.0000 </r>
        <r>   20.9172    0.0000 </r>
        <r>   21.0866    0.0000 </r>
        <r>   21.8214    0.0000 </r>
        <r>   22.3044    0.0000 </r>
        <r>   22.7253    0.0000 </r>
       </set>
       <set comment="kpoint 40">
        <r>   -8.0310    1.0000 </r>
        <r>   -6.9267    1.0000 </r>
        <r>   -5.8258    1.0000 </r>
        <r>   -0.1953    1.0000 </r>
        <r>    0.2072    1.0000 </r>
        <r>    1.0091    1.0000 </r>
        <r>    2.5331    1.0000 </r>
        <r>    3.5817    1.0000 </r>
        <r>    4.3752    1.0000 </r>
        <r>    7.1358    0.0000 </r>
        <r>    8.0948    0.0000 </r>
        <r>    8.3825    0.0000 </r>
        <r>   10.6051    0.0000 </r>
        <r>   11.9066    0.0000 </r>
        <r>   12.4988    0.0000 </r>
        <r>   13.9036    0.0000 </r>
        <r>   14.7674    0.0000 </r>
        <r>   15.2248    0.0000 </r>
        <r>   15.7247    0.0000 </r>
        <r>   16.3764    0.0000 </r>
        <r>   16.6535    0.0000 </r>
        <r>   18.1367    0.0000 </r>
        <r>   18.8119    0.0000 </r>
        <r>   18.9292    0.0000 </r>
        <r>   19.3944    0.0000 </r>
        <r>   20.0306    0.0000 </r>
        <r>   20.4381    0.0000 </r>
        <r>   20.7760    0.0000 </r>
        <r>   21.3166    0.0000 </r>
        <r>   21.8205    0.0000 </r>
        <r>   22.2108    0.0000 </r>
        <r>   22.5838    0.0000 </r>
       </set>
       <set comment="kpoint 41">
        <r>   -8.9318    1.0000 </r>
        <r>   -7.9894    1.0000 </r>
        <r>   -3.8720    1.0000 </r>
        <r>    1.2899    1.0000 </r>
        <r>    2.2713    1.0000 </r>
        <r>    2.5278    1.0000 </r>
        <r>    3.7092    1.0000 </r>
        <r>    3.9071    1.0000 </r>
        <r>    4.2002    1.0000 </r>
        <r>    6.1737    0.0000 </r>
        <r>    6.2344    0.0000 </r>
        <r>    6.4252    0.0000 </r>
        <r>   10.0328    0.0000 </r>
        <r>   11.1311    0.0000 </r>
        <r>   11.3647    0.0000 </r>
        <r>   12.9964    0.0000 </r>
        <r>   13.2806    0.0000 </r>
        <r>   13.6267    0.0000 </r>
        <r>   13.6335    0.0000 </r>
        <r>   15.3794    0.0000 </r>
        <r>   15.4573    0.0000 </r>
        <r>   16.4229    0.0000 </r>
        <r>   16.7731    0.0000 </r>
        <r>   17.3852    0.0000 </r>
        <r>   18.0340    0.0000 </r>
        <r>   18.9324    0.0000 </r>
        <r>   19.0361    0.0000 </r>
        <r>   19.5627    0.0000 </r>
        <r>   21.9039    0.0000 </r>
        <r>   25.6494    0.0000 </r>
        <r>   25.9461    0.0000 </r>
        <r>   26.3440    0.0000 </r>
       </set>
       <set comment="kpoint 42">
        <r>   -8.8303    1.0000 </r>
        <r>   -7.9036    1.0000 </r>
        <r>   -4.0949    1.0000 </r>
        <r>    1.1770    1.0000 </r>
        <r>    2.0901    1.0000 </r>
        <r>    2.4569    1.0000 </r>
        <r>    3.2320    1.0000 </r>
        <r>    3.4800    1.0000 </r>
        <r>    3.8430    1.0000 </r>
        <r>    6.6425    0.0000 </r>
        <r>    6.9585    0.0000 </r>
        <r>    7.0244    0.0000 </r>
        <r>   10.3002    0.0000 </r>
        <r>   11.0880    0.0000 </r>
        <r>   11.4959    0.0000 </r>
        <r>   12.3055    0.0000 </r>
        <r>   13.1140    0.0000 </r>
        <r>   13.9856    0.0000 </r>
        <r>   14.3950    0.0000 </r>
        <r>   14.5941    0.0000 </r>
        <r>   16.0689    0.0000 </r>
        <r>   16.5290    0.0000 </r>
        <r>   17.1915    0.0000 </r>
        <r>   17.7115    0.0000 </r>
        <r>   18.1601    0.0000 </r>
        <r>   18.8608    0.0000 </r>
        <r>   19.6050    0.0000 </r>
        <r>   20.9889    0.0000 </r>
        <r>   22.0405    0.0000 </r>
        <r>   23.4717    0.0000 </r>
        <r>   23.5548    0.0000 </r>
        <r>   24.3546    0.0000 </r>
       </set>
       <set comment="kpoint 43">
        <r>   -8.8269    1.0000 </r>
        <r>   -7.9114    1.0000 </r>
        <r>   -4.0721    1.0000 </r>
        <r>    1.1047    1.0000 </r>
        <r>    1.8130    1.0000 </r>
        <r>    2.3397    1.0000 </r>
        <r>    3.5302    1.0000 </r>
        <r>    3.8624    1.0000 </r>
        <r>    4.0604    1.0000 </r>
        <r>    6.3122    0.0000 </r>
        <r>    6.4555    0.0000 </r>
        <r>    7.2805    0.0000 </r>
        <r>   10.0426    0.0000 </r>
        <r>   11.0349    0.0000 </r>
        <r>   11.7680    0.0000 </r>
        <r>   12.4557    0.0000 </r>
        <r>   13.4272    0.0000 </r>
        <r>   14.0880    0.0000 </r>
        <r>   14.2178    0.0000 </r>
        <r>   15.2321    0.0000 </r>
        <r>   15.4892    0.0000 </r>
        <r>   16.2814    0.0000 </r>
        <r>   16.8707    0.0000 </r>
        <r>   17.4582    0.0000 </r>
        <r>   18.2802    0.0000 </r>
        <r>   19.2697    0.0000 </r>
        <r>   19.6484    0.0000 </r>
        <r>   20.9095    0.0000 </r>
        <r>   22.0543    0.0000 </r>
        <r>   23.3032    0.0000 </r>
        <r>   23.7783    0.0000 </r>
        <r>   24.5999    0.0000 </r>
       </set>
       <set comment="kpoint 44">
        <r>   -8.5573    1.0000 </r>
        <r>   -7.6590    1.0000 </r>
        <r>   -4.6881    1.0000 </r>
        <r>    0.7736    1.0000 </r>
        <r>    1.6474    1.0000 </r>
        <r>    1.9883    1.0000 </r>
        <r>    2.7386    1.0000 </r>
        <r>    3.0495    1.0000 </r>
        <r>    3.6298    1.0000 </r>
        <r>    7.1922    0.0000 </r>
        <r>    7.7121    0.0000 </r>
        <r>    8.2910    0.0000 </r>
        <r>   10.7966    0.0000 </r>
        <r>   11.1669    0.0000 </r>
        <r>   11.7017    0.0000 </r>
        <r>   12.3019    0.0000 </r>
        <r>   13.0947    0.0000 </r>
        <r>   13.6190    0.0000 </r>
        <r>   14.1634    0.0000 </r>
        <r>   16.1956    0.0000 </r>
        <r>   16.5749    0.0000 </r>
        <r>   17.3607    0.0000 </r>
        <r>   17.7395    0.0000 </r>
        <r>   18.0636    0.0000 </r>
        <r>   19.6304    0.0000 </r>
        <r>   19.9019    0.0000 </r>
        <r>   20.2514    0.0000 </r>
        <r>   20.8891    0.0000 </r>
        <r>   21.2714    0.0000 </r>
        <r>   21.5827    0.0000 </r>
        <r>   22.6561    0.0000 </r>
        <r>   22.8083    0.0000 </r>
       </set>
       <set comment="kpoint 45">
        <r>   -8.5305    1.0000 </r>
        <r>   -7.7191    1.0000 </r>
        <r>   -4.5710    1.0000 </r>
        <r>    0.3257    1.0000 </r>
        <r>    1.1224    1.0000 </r>
        <r>    1.9364    1.0000 </r>
        <r>    3.4679    1.0000 </r>
        <r>    3.5743    1.0000 </r>
        <r>    4.4513    1.0000 </r>
        <r>    6.6360    0.0000 </r>
        <r>    7.2430    0.0000 </r>
        <r>    7.3779    0.0000 </r>
        <r>    9.8087    0.0000 </r>
        <r>   11.7516    0.0000 </r>
        <r>   12.3161    0.0000 </r>
        <r>   13.1696    0.0000 </r>
        <r>   13.6459    0.0000 </r>
        <r>   14.4639    0.0000 </r>
        <r>   14.5073    0.0000 </r>
        <r>   15.7401    0.0000 </r>
        <r>   16.0843    0.0000 </r>
        <r>   16.1813    0.0000 </r>
        <r>   17.1360    0.0000 </r>
        <r>   17.8765    0.0000 </r>
        <r>   19.8469    0.0000 </r>
        <r>   19.9130    0.0000 </r>
        <r>   20.2478    0.0000 </r>
        <r>   20.8483    0.0000 </r>
        <r>   21.3745    0.0000 </r>
        <r>   21.9484    0.0000 </r>
        <r>   22.2507    0.0000 </r>
        <r>   23.1021    0.0000 </r>
       </set>
       <set comment="kpoint 46">
        <r>   -8.2120    1.0000 </r>
        <r>   -7.3492    1.0000 </r>
        <r>   -5.3576    1.0000 </r>
        <r>   -0.1160    1.0000 </r>
        <r>    1.2480    1.0000 </r>
        <r>    1.6180    1.0000 </r>
        <r>    2.8797    1.0000 </r>
        <r>    3.0302    1.0000 </r>
        <r>    3.6643    1.0000 </r>
        <r>    7.4457    0.0000 </r>
        <r>    8.0455    0.0000 </r>
        <r>    8.3546    0.0000 </r>
        <r>   10.5179    0.0000 </r>
        <r>   11.2856    0.0000 </r>
        <r>   12.8682    0.0000 </r>
        <r>   13.3565    0.0000 </r>
        <r>   13.7196    0.0000 </r>
        <r>   13.9385    0.0000 </r>
        <r>   15.2011    0.0000 </r>
        <r>   16.5980    0.0000 </r>
        <r>   16.8832    0.0000 </r>
        <r>   17.9454    0.0000 </r>
        <r>   18.0710    0.0000 </r>
        <r>   18.6086    0.0000 </r>
        <r>   19.0746    0.0000 </r>
        <r>   19.2537    0.0000 </r>
        <r>   19.6793    0.0000 </r>
        <r>   20.0997    0.0000 </r>
        <r>   21.4815    0.0000 </r>
        <r>   22.1224    0.0000 </r>
        <r>   22.3639    0.0000 </r>
        <r>   22.9988    0.0000 </r>
       </set>
       <set comment="kpoint 47">
        <r>   -8.1474    1.0000 </r>
        <r>   -7.4944    1.0000 </r>
        <r>   -5.1793    1.0000 </r>
        <r>   -0.5130    1.0000 </r>
        <r>    0.9450    1.0000 </r>
        <r>    1.6383    1.0000 </r>
        <r>    3.0982    1.0000 </r>
        <r>    3.3188    1.0000 </r>
        <r>    5.0811    1.0000 </r>
        <r>    6.4707    0.0000 </r>
        <r>    7.2534    0.0000 </r>
        <r>    7.9120    0.0000 </r>
        <r>    9.9094    0.0000 </r>
        <r>   12.0055    0.0000 </r>
        <r>   13.7281    0.0000 </r>
        <r>   13.9058    0.0000 </r>
        <r>   14.1250    0.0000 </r>
        <r>   14.9329    0.0000 </r>
        <r>   15.3683    0.0000 </r>
        <r>   15.5101    0.0000 </r>
        <r>   16.1848    0.0000 </r>
        <r>   17.7839    0.0000 </r>
        <r>   17.9271    0.0000 </r>
        <r>   18.3340    0.0000 </r>
        <r>   18.9653    0.0000 </r>
        <r>   19.0632    0.0000 </r>
        <r>   19.5235    0.0000 </r>
        <r>   19.9624    0.0000 </r>
        <r>   20.8192    0.0000 </r>
        <r>   21.4865    0.0000 </r>
        <r>   22.8045    0.0000 </r>
        <r>   23.5861    0.0000 </r>
       </set>
       <set comment="kpoint 48">
        <r>   -7.9937    1.0000 </r>
        <r>   -7.2763    1.0000 </r>
        <r>   -5.5912    1.0000 </r>
        <r>   -0.6776    1.0000 </r>
        <r>    1.0006    1.0000 </r>
        <r>    1.5207    1.0000 </r>
        <r>    2.8948    1.0000 </r>
        <r>    3.1789    1.0000 </r>
        <r>    4.3905    1.0000 </r>
        <r>    7.1314    0.0000 </r>
        <r>    7.5105    0.0000 </r>
        <r>    8.2147    0.0000 </r>
        <r>   10.2013    0.0000 </r>
        <r>   11.5180    0.0000 </r>
        <r>   14.2335    0.0000 </r>
        <r>   14.4194    0.0000 </r>
        <r>   14.7530    0.0000 </r>
        <r>   15.2002    0.0000 </r>
        <r>   15.4981    0.0000 </r>
        <r>   15.9369    0.0000 </r>
        <r>   16.3350    0.0000 </r>
        <r>   16.7198    0.0000 </r>
        <r>   17.2578    0.0000 </r>
        <r>   17.9964    0.0000 </r>
        <r>   18.6299    0.0000 </r>
        <r>   19.7687    0.0000 </r>
        <r>   20.3503    0.0000 </r>
        <r>   21.2441    0.0000 </r>
        <r>   21.4735    0.0000 </r>
        <r>   21.8675    0.0000 </r>
        <r>   22.3233    0.0000 </r>
        <r>   22.6675    0.0000 </r>
       </set>
       <set comment="kpoint 49">
        <r>   -8.6338    1.0000 </r>
        <r>   -7.7571    1.0000 </r>
        <r>   -4.4598    1.0000 </r>
        <r>    0.8127    1.0000 </r>
        <r>    1.3801    1.0000 </r>
        <r>    2.0770    1.0000 </r>
        <r>    2.7890    1.0000 </r>
        <r>    3.7954    1.0000 </r>
        <r>    4.1455    1.0000 </r>
        <r>    6.4597    0.0000 </r>
        <r>    7.5057    0.0000 </r>
        <r>    7.7372    0.0000 </r>
        <r>   10.2636    0.0000 </r>
        <r>   11.1947    0.0000 </r>
        <r>   11.9987    0.0000 </r>
        <r>   12.4571    0.0000 </r>
        <r>   13.1936    0.0000 </r>
        <r>   14.1503    0.0000 </r>
        <r>   14.6438    0.0000 </r>
        <r>   15.4410    0.0000 </r>
        <r>   15.9358    0.0000 </r>
        <r>   16.4949    0.0000 </r>
        <r>   17.4622    0.0000 </r>
        <r>   18.3095    0.0000 </r>
        <r>   18.7974    0.0000 </r>
        <r>   19.5163    0.0000 </r>
        <r>   20.4492    0.0000 </r>
        <r>   21.1907    0.0000 </r>
        <r>   21.7520    0.0000 </r>
        <r>   22.3771    0.0000 </r>
        <r>   22.5067    0.0000 </r>
        <r>   23.6453    0.0000 </r>
       </set>
       <set comment="kpoint 50">
        <r>   -8.3141    1.0000 </r>
        <r>   -7.4803    1.0000 </r>
        <r>   -5.0918    1.0000 </r>
        <r>    0.2964    1.0000 </r>
        <r>    0.8387    1.0000 </r>
        <r>    1.4733    1.0000 </r>
        <r>    2.7698    1.0000 </r>
        <r>    3.7285    1.0000 </r>
        <r>    4.0666    1.0000 </r>
        <r>    7.0174    0.0000 </r>
        <r>    7.6442    0.0000 </r>
        <r>    8.4391    0.0000 </r>
        <r>   10.6774    0.0000 </r>
        <r>   11.3697    0.0000 </r>
        <r>   11.7349    0.0000 </r>
        <r>   13.2895    0.0000 </r>
        <r>   13.8874    0.0000 </r>
        <r>   14.2604    0.0000 </r>
        <r>   14.7917    0.0000 </r>
        <r>   15.6221    0.0000 </r>
        <r>   17.3139    0.0000 </r>
        <r>   17.7224    0.0000 </r>
        <r>   18.1128    0.0000 </r>
        <r>   18.4307    0.0000 </r>
        <r>   18.8972    0.0000 </r>
        <r>   19.6739    0.0000 </r>
        <r>   19.8746    0.0000 </r>
        <r>   20.8371    0.0000 </r>
        <r>   21.6422    0.0000 </r>
        <r>   21.9674    0.0000 </r>
        <r>   22.3274    0.0000 </r>
        <r>   22.9197    0.0000 </r>
       </set>
       <set comment="kpoint 51">
        <r>   -8.2842    1.0000 </r>
        <r>   -7.5467    1.0000 </r>
        <r>   -4.9967    1.0000 </r>
        <r>   -0.0928    1.0000 </r>
        <r>    0.8430    1.0000 </r>
        <r>    1.5830    1.0000 </r>
        <r>    2.6218    1.0000 </r>
        <r>    4.3069    1.0000 </r>
        <r>    4.7986    1.0000 </r>
        <r>    6.3740    0.0000 </r>
        <r>    7.1033    0.0000 </r>
        <r>    8.1284    0.0000 </r>
        <r>   10.1135    0.0000 </r>
        <r>   11.9721    0.0000 </r>
        <r>   12.4676    0.0000 </r>
        <r>   13.0283    0.0000 </r>
        <r>   14.0980    0.0000 </r>
        <r>   14.8267    0.0000 </r>
        <r>   15.1703    0.0000 </r>
        <r>   16.0673    0.0000 </r>
        <r>   16.4592    0.0000 </r>
        <r>   16.9974    0.0000 </r>
        <r>   17.7869    0.0000 </r>
        <r>   18.0228    0.0000 </r>
        <r>   18.8702    0.0000 </r>
        <r>   19.6411    0.0000 </r>
        <r>   20.4712    0.0000 </r>
        <r>   20.7606    0.0000 </r>
        <r>   21.3820    0.0000 </r>
        <r>   21.7785    0.0000 </r>
        <r>   22.0807    0.0000 </r>
        <r>   23.4235    0.0000 </r>
       </set>
       <set comment="kpoint 52">
        <r>   -8.0116    1.0000 </r>
        <r>   -7.2541    1.0000 </r>
        <r>   -5.5878    1.0000 </r>
        <r>   -0.3957    1.0000 </r>
        <r>    0.5080    1.0000 </r>
        <r>    1.2504    1.0000 </r>
        <r>    2.9743    1.0000 </r>
        <r>    3.8164    1.0000 </r>
        <r>    4.2728    1.0000 </r>
        <r>    7.0428    0.0000 </r>
        <r>    7.7462    0.0000 </r>
        <r>    8.1270    0.0000 </r>
        <r>   10.4505    0.0000 </r>
        <r>   11.5553    0.0000 </r>
        <r>   12.8854    0.0000 </r>
        <r>   14.1630    0.0000 </r>
        <r>   14.5669    0.0000 </r>
        <r>   14.9917    0.0000 </r>
        <r>   15.5286    0.0000 </r>
        <r>   15.9097    0.0000 </r>
        <r>   16.4278    0.0000 </r>
        <r>   17.0127    0.0000 </r>
        <r>   18.3722    0.0000 </r>
        <r>   18.7346    0.0000 </r>
        <r>   19.2915    0.0000 </r>
        <r>   19.8424    0.0000 </r>
        <r>   20.4406    0.0000 </r>
        <r>   20.6675    0.0000 </r>
        <r>   21.2710    0.0000 </r>
        <r>   21.4018    0.0000 </r>
        <r>   22.0399    0.0000 </r>
        <r>   22.8439    0.0000 </r>
       </set>
       <set comment="kpoint 53">
        <r>   -7.9712    1.0000 </r>
        <r>   -7.3443    1.0000 </r>
        <r>   -5.4966    1.0000 </r>
        <r>   -0.6080    1.0000 </r>
        <r>    0.5539    1.0000 </r>
        <r>    1.2861    1.0000 </r>
        <r>    2.7405    1.0000 </r>
        <r>    4.1917    1.0000 </r>
        <r>    4.9338    1.0000 </r>
        <r>    6.5249    0.0000 </r>
        <r>    7.1127    0.0000 </r>
        <r>    8.2434    0.0000 </r>
        <r>   10.1904    0.0000 </r>
        <r>   12.0581    0.0000 </r>
        <r>   13.3722    0.0000 </r>
        <r>   13.8546    0.0000 </r>
        <r>   14.3224    0.0000 </r>
        <r>   15.0269    0.0000 </r>
        <r>   16.1324    0.0000 </r>
        <r>   16.3575    0.0000 </r>
        <r>   16.7690    0.0000 </r>
        <r>   16.8667    0.0000 </r>
        <r>   17.6234    0.0000 </r>
        <r>   18.1384    0.0000 </r>
        <r>   19.1483    0.0000 </r>
        <r>   19.4807    0.0000 </r>
        <r>   20.1686    0.0000 </r>
        <r>   20.4585    0.0000 </r>
        <r>   21.3469    0.0000 </r>
        <r>   22.2226    0.0000 </r>
        <r>   22.6613    0.0000 </r>
        <r>   23.1497    0.0000 </r>
       </set>
       <set comment="kpoint 54">
        <r>   -7.9911    1.0000 </r>
        <r>   -7.3206    1.0000 </r>
        <r>   -5.4923    1.0000 </r>
        <r>   -0.2418    1.0000 </r>
        <r>    0.2434    1.0000 </r>
        <r>    0.7850    1.0000 </r>
        <r>    3.0876    1.0000 </r>
        <r>    4.4427    1.0000 </r>
        <r>    4.9569    1.0000 </r>
        <r>    6.4210    0.0000 </r>
        <r>    7.2045    0.0000 </r>
        <r>    8.2298    0.0000 </r>
        <r>   10.7739    0.0000 </r>
        <r>   11.6509    0.0000 </r>
        <r>   12.4169    0.0000 </r>
        <r>   13.3867    0.0000 </r>
        <r>   14.6632    0.0000 </r>
        <r>   15.1901    0.0000 </r>
        <r>   15.9230    0.0000 </r>
        <r>   16.0350    0.0000 </r>
        <r>   16.4575    0.0000 </r>
        <r>   17.0692    0.0000 </r>
        <r>   18.2206    0.0000 </r>
        <r>   18.8564    0.0000 </r>
        <r>   19.7740    0.0000 </r>
        <r>   20.0014    0.0000 </r>
        <r>   20.6781    0.0000 </r>
        <r>   20.7899    0.0000 </r>
        <r>   21.2509    0.0000 </r>
        <r>   21.7244    0.0000 </r>
        <r>   22.2407    0.0000 </r>
        <r>   22.6960    0.0000 </r>
       </set>
       <set comment="kpoint 55">
        <r>   -7.8292    1.0000 </r>
        <r>   -7.2362    1.0000 </r>
        <r>   -5.7028    1.0000 </r>
        <r>   -0.3613    1.0000 </r>
        <r>   -0.0031    1.0000 </r>
        <r>    0.4825    1.0000 </r>
        <r>    3.4433    1.0000 </r>
        <r>    4.4937    1.0000 </r>
        <r>    5.0195    1.0000 </r>
        <r>    6.4547    0.0000 </r>
        <r>    7.3413    0.0000 </r>
        <r>    7.8323    0.0000 </r>
        <r>   10.9887    0.0000 </r>
        <r>   12.1024    0.0000 </r>
        <r>   12.8042    0.0000 </r>
        <r>   13.1744    0.0000 </r>
        <r>   14.0496    0.0000 </r>
        <r>   14.7368    0.0000 </r>
        <r>   15.6899    0.0000 </r>
        <r>   16.9567    0.0000 </r>
        <r>   17.3703    0.0000 </r>
        <r>   18.1451    0.0000 </r>
        <r>   18.2504    0.0000 </r>
        <r>   18.8916    0.0000 </r>
        <r>   19.4438    0.0000 </r>
        <r>   20.1425    0.0000 </r>
        <r>   20.6606    0.0000 </r>
        <r>   20.9256    0.0000 </r>
        <r>   21.2181    0.0000 </r>
        <r>   21.7890    0.0000 </r>
        <r>   22.2106    0.0000 </r>
        <r>   22.9214    0.0000 </r>
       </set>
       <set comment="kpoint 56">
        <r>   -8.5145    1.0000 </r>
        <r>   -8.5145    1.0000 </r>
        <r>   -3.6602    1.0000 </r>
        <r>    1.1401    1.0000 </r>
        <r>    2.4138    1.0000 </r>
        <r>    2.4138    1.0000 </r>
        <r>    3.7569    1.0000 </r>
        <r>    4.0899    1.0000 </r>
        <r>    4.0899    1.0000 </r>
        <r>    6.1609    0.0000 </r>
        <r>    6.1853    0.0000 </r>
        <r>    6.1854    0.0000 </r>
        <r>    9.9347    0.0000 </r>
        <r>   11.1348    0.0000 </r>
        <r>   11.1348    0.0000 </r>
        <r>   13.0486    0.0000 </r>
        <r>   13.7646    0.0000 </r>
        <r>   13.7647    0.0000 </r>
        <r>   14.6010    0.0000 </r>
        <r>   15.3268    0.0000 </r>
        <r>   16.0945    0.0000 </r>
        <r>   16.0945    0.0000 </r>
        <r>   17.1303    0.0000 </r>
        <r>   17.1303    0.0000 </r>
        <r>   17.8651    0.0000 </r>
        <r>   18.1688    0.0000 </r>
        <r>   18.1688    0.0000 </r>
        <r>   18.3358    0.0000 </r>
        <r>   23.9175    0.0000 </r>
        <r>   23.9176    0.0000 </r>
        <r>   26.5212    0.0000 </r>
        <r>   26.5262    0.0000 </r>
       </set>
       <set comment="kpoint 57">
        <r>   -8.4310    1.0000 </r>
        <r>   -8.4085    1.0000 </r>
        <r>   -3.9078    1.0000 </r>
        <r>    1.0702    1.0000 </r>
        <r>    2.1681    1.0000 </r>
        <r>    2.3110    1.0000 </r>
        <r>    3.2356    1.0000 </r>
        <r>    3.6304    1.0000 </r>
        <r>    3.9093    1.0000 </r>
        <r>    6.4381    0.0000 </r>
        <r>    6.6959    0.0000 </r>
        <r>    7.1822    0.0000 </r>
        <r>   10.2144    0.0000 </r>
        <r>   10.8217    0.0000 </r>
        <r>   11.5399    0.0000 </r>
        <r>   12.9282    0.0000 </r>
        <r>   13.5003    0.0000 </r>
        <r>   14.0781    0.0000 </r>
        <r>   14.1791    0.0000 </r>
        <r>   15.4770    0.0000 </r>
        <r>   15.8331    0.0000 </r>
        <r>   16.2372    0.0000 </r>
        <r>   16.9607    0.0000 </r>
        <r>   17.5152    0.0000 </r>
        <r>   17.8979    0.0000 </r>
        <r>   18.7659    0.0000 </r>
        <r>   19.4594    0.0000 </r>
        <r>   19.6467    0.0000 </r>
        <r>   23.4387    0.0000 </r>
        <r>   23.5206    0.0000 </r>
        <r>   23.8885    0.0000 </r>
        <r>   24.3737    0.0000 </r>
       </set>
       <set comment="kpoint 58">
        <r>   -8.2136    1.0000 </r>
        <r>   -8.1081    1.0000 </r>
        <r>   -4.5214    1.0000 </r>
        <r>    0.4918    1.0000 </r>
        <r>    1.5408    1.0000 </r>
        <r>    1.9537    1.0000 </r>
        <r>    3.0786    1.0000 </r>
        <r>    3.2253    1.0000 </r>
        <r>    3.8347    1.0000 </r>
        <r>    6.9814    0.0000 </r>
        <r>    7.5538    0.0000 </r>
        <r>    7.9466    0.0000 </r>
        <r>   10.3565    0.0000 </r>
        <r>   11.2729    0.0000 </r>
        <r>   12.1158    0.0000 </r>
        <r>   12.7082    0.0000 </r>
        <r>   13.3567    0.0000 </r>
        <r>   14.1929    0.0000 </r>
        <r>   14.6655    0.0000 </r>
        <r>   15.5177    0.0000 </r>
        <r>   15.6566    0.0000 </r>
        <r>   16.4852    0.0000 </r>
        <r>   18.1966    0.0000 </r>
        <r>   18.6786    0.0000 </r>
        <r>   19.2586    0.0000 </r>
        <r>   19.4056    0.0000 </r>
        <r>   20.5612    0.0000 </r>
        <r>   20.9386    0.0000 </r>
        <r>   21.3233    0.0000 </r>
        <r>   21.4627    0.0000 </r>
        <r>   21.9728    0.0000 </r>
        <r>   22.5167    0.0000 </r>
       </set>
       <set comment="kpoint 59">
        <r>   -7.9674    1.0000 </r>
        <r>   -7.6939    1.0000 </r>
        <r>   -5.2177    1.0000 </r>
        <r>   -0.4247    1.0000 </r>
        <r>    1.3644    1.0000 </r>
        <r>    1.6103    1.0000 </r>
        <r>    2.7741    1.0000 </r>
        <r>    3.0818    1.0000 </r>
        <r>    4.4768    1.0000 </r>
        <r>    7.0713    0.0000 </r>
        <r>    7.6659    0.0000 </r>
        <r>    8.1585    0.0000 </r>
        <r>   10.4335    0.0000 </r>
        <r>   11.3607    0.0000 </r>
        <r>   13.2417    0.0000 </r>
        <r>   13.4688    0.0000 </r>
        <r>   14.1720    0.0000 </r>
        <r>   14.4048    0.0000 </r>
        <r>   15.2283    0.0000 </r>
        <r>   15.8415    0.0000 </r>
        <r>   15.8905    0.0000 </r>
        <r>   18.0974    0.0000 </r>
        <r>   18.2434    0.0000 </r>
        <r>   18.4360    0.0000 </r>
        <r>   18.8242    0.0000 </r>
        <r>   18.9108    0.0000 </r>
        <r>   20.0794    0.0000 </r>
        <r>   20.4111    0.0000 </r>
        <r>   21.3316    0.0000 </r>
        <r>   21.6348    0.0000 </r>
        <r>   22.7532    0.0000 </r>
        <r>   23.1009    0.0000 </r>
       </set>
       <set comment="kpoint 60">
        <r>   -7.8544    1.0000 </r>
        <r>   -7.4458    1.0000 </r>
        <r>   -5.5753    1.0000 </r>
        <r>   -0.8031    1.0000 </r>
        <r>    1.3829    1.0000 </r>
        <r>    1.4192    1.0000 </r>
        <r>    2.6587    1.0000 </r>
        <r>    3.0100    1.0000 </r>
        <r>    5.0880    1.0000 </r>
        <r>    6.4848    0.0000 </r>
        <r>    7.7301    0.0000 </r>
        <r>    8.3260    0.0000 </r>
        <r>   10.4820    0.0000 </r>
        <r>   11.1958    0.0000 </r>
        <r>   13.9595    0.0000 </r>
        <r>   14.1669    0.0000 </r>
        <r>   15.1677    0.0000 </r>
        <r>   15.3660    0.0000 </r>
        <r>   15.4541    0.0000 </r>
        <r>   15.7187    0.0000 </r>
        <r>   16.4085    0.0000 </r>
        <r>   16.6009    0.0000 </r>
        <r>   16.8056    0.0000 </r>
        <r>   17.5111    0.0000 </r>
        <r>   18.8847    0.0000 </r>
        <r>   19.4336    0.0000 </r>
        <r>   21.3963    0.0000 </r>
        <r>   21.6839    0.0000 </r>
        <r>   21.8417    0.0000 </r>
        <r>   22.4540    0.0000 </r>
        <r>   22.5691    0.0000 </r>
        <r>   23.9510    0.0000 </r>
       </set>
       <set comment="kpoint 61">
        <r>   -8.2736    1.0000 </r>
        <r>   -8.2113    1.0000 </r>
        <r>   -4.3324    1.0000 </r>
        <r>    0.7933    1.0000 </r>
        <r>    1.7120    1.0000 </r>
        <r>    1.7604    1.0000 </r>
        <r>    3.0505    1.0000 </r>
        <r>    3.3093    1.0000 </r>
        <r>    4.2386    1.0000 </r>
        <r>    6.3530    0.0000 </r>
        <r>    7.6595    0.0000 </r>
        <r>    7.8317    0.0000 </r>
        <r>   10.5725    0.0000 </r>
        <r>   10.7241    0.0000 </r>
        <r>   12.2213    0.0000 </r>
        <r>   12.5814    0.0000 </r>
        <r>   13.2053    0.0000 </r>
        <r>   13.9952    0.0000 </r>
        <r>   14.5747    0.0000 </r>
        <r>   15.4870    0.0000 </r>
        <r>   16.2059    0.0000 </r>
        <r>   16.4892    0.0000 </r>
        <r>   17.3278    0.0000 </r>
        <r>   17.6557    0.0000 </r>
        <r>   19.0782    0.0000 </r>
        <r>   19.6953    0.0000 </r>
        <r>   20.6803    0.0000 </r>
        <r>   20.7572    0.0000 </r>
        <r>   21.2204    0.0000 </r>
        <r>   21.6709    0.0000 </r>
        <r>   23.5810    0.0000 </r>
        <r>   23.9114    0.0000 </r>
       </set>
       <set comment="kpoint 62">
        <r>   -8.0215    1.0000 </r>
        <r>   -7.8641    1.0000 </r>
        <r>   -4.9693    1.0000 </r>
        <r>    0.0484    1.0000 </r>
        <r>    1.0229    1.0000 </r>
        <r>    1.2354    1.0000 </r>
        <r>    3.1778    1.0000 </r>
        <r>    3.6909    1.0000 </r>
        <r>    4.3255    1.0000 </r>
        <r>    6.7397    0.0000 </r>
        <r>    7.7652    0.0000 </r>
        <r>    8.0326    0.0000 </r>
        <r>   10.4727    0.0000 </r>
        <r>   11.4996    0.0000 </r>
        <r>   12.2944    0.0000 </r>
        <r>   13.2142    0.0000 </r>
        <r>   13.6348    0.0000 </r>
        <r>   14.4376    0.0000 </r>
        <r>   14.9187    0.0000 </r>
        <r>   15.7838    0.0000 </r>
        <r>   16.9103    0.0000 </r>
        <r>   17.5509    0.0000 </r>
        <r>   17.9539    0.0000 </r>
        <r>   18.1150    0.0000 </r>
        <r>   18.5156    0.0000 </r>
        <r>   19.5171    0.0000 </r>
        <r>   20.6150    0.0000 </r>
        <r>   20.9461    0.0000 </r>
        <r>   21.3784    0.0000 </r>
        <r>   22.2186    0.0000 </r>
        <r>   22.6152    0.0000 </r>
        <r>   22.8011    0.0000 </r>
       </set>
       <set comment="kpoint 63">
        <r>   -7.8201    1.0000 </r>
        <r>   -7.5121    1.0000 </r>
        <r>   -5.5074    1.0000 </r>
        <r>   -0.6153    1.0000 </r>
        <r>    0.7854    1.0000 </r>
        <r>    0.9138    1.0000 </r>
        <r>    3.3816    1.0000 </r>
        <r>    3.6427    1.0000 </r>
        <r>    4.9300    1.0000 </r>
        <r>    6.6654    0.0000 </r>
        <r>    7.4402    0.0000 </r>
        <r>    8.0249    0.0000 </r>
        <r>   10.6063    0.0000 </r>
        <r>   11.4128    0.0000 </r>
        <r>   13.2322    0.0000 </r>
        <r>   14.0358    0.0000 </r>
        <r>   14.3947    0.0000 </r>
        <r>   15.0953    0.0000 </r>
        <r>   15.3866    0.0000 </r>
        <r>   15.9743    0.0000 </r>
        <r>   16.3953    0.0000 </r>
        <r>   17.1839    0.0000 </r>
        <r>   17.6719    0.0000 </r>
        <r>   18.6208    0.0000 </r>
        <r>   19.3333    0.0000 </r>
        <r>   19.7648    0.0000 </r>
        <r>   20.3883    0.0000 </r>
        <r>   20.5732    0.0000 </r>
        <r>   21.3574    0.0000 </r>
        <r>   21.9461    0.0000 </r>
        <r>   22.6610    0.0000 </r>
        <r>   23.3368    0.0000 </r>
       </set>
       <set comment="kpoint 64">
        <r>   -7.7646    1.0000 </r>
        <r>   -7.5975    1.0000 </r>
        <r>   -5.4400    1.0000 </r>
        <r>   -0.2354    1.0000 </r>
        <r>    0.1852    1.0000 </r>
        <r>    0.5490    1.0000 </r>
        <r>    3.8245    1.0000 </r>
        <r>    4.3836    1.0000 </r>
        <r>    4.8262    1.0000 </r>
        <r>    6.4780    0.0000 </r>
        <r>    7.4807    0.0000 </r>
        <r>    7.5354    0.0000 </r>
        <r>   10.9579    0.0000 </r>
        <r>   11.9138    0.0000 </r>
        <r>   12.4693    0.0000 </r>
        <r>   12.6455    0.0000 </r>
        <r>   14.8215    0.0000 </r>
        <r>   14.9534    0.0000 </r>
        <r>   15.9248    0.0000 </r>
        <r>   16.2930    0.0000 </r>
        <r>   16.5591    0.0000 </r>
        <r>   17.0037    0.0000 </r>
        <r>   17.9186    0.0000 </r>
        <r>   18.9184    0.0000 </r>
        <r>   19.5212    0.0000 </r>
        <r>   20.2652    0.0000 </r>
        <r>   20.4532    0.0000 </r>
        <r>   21.2253    0.0000 </r>
        <r>   21.2889    0.0000 </r>
        <r>   21.8066    0.0000 </r>
        <r>   22.1572    0.0000 </r>
        <r>   22.5625    0.0000 </r>
       </set>
       <set comment="kpoint 65">
        <r>   -7.6296    1.0000 </r>
        <r>   -7.4737    1.0000 </r>
        <r>   -5.6582    1.0000 </r>
        <r>   -0.4395    1.0000 </r>
        <r>    0.0955    1.0000 </r>
        <r>    0.1471    1.0000 </r>
        <r>    4.1098    1.0000 </r>
        <r>    4.7205    1.0000 </r>
        <r>    5.2567    1.0000 </r>
        <r>    6.1926    0.0000 </r>
        <r>    7.1047    0.0000 </r>
        <r>    7.3389    0.0000 </r>
        <r>   11.3769    0.0000 </r>
        <r>   11.9277    0.0000 </r>
        <r>   12.9741    0.0000 </r>
        <r>   13.2839    0.0000 </r>
        <r>   13.5169    0.0000 </r>
        <r>   14.1114    0.0000 </r>
        <r>   16.3340    0.0000 </r>
        <r>   16.9000    0.0000 </r>
        <r>   17.6939    0.0000 </r>
        <r>   18.0060    0.0000 </r>
        <r>   18.3929    0.0000 </r>
        <r>   18.7264    0.0000 </r>
        <r>   19.6292    0.0000 </r>
        <r>   19.8729    0.0000 </r>
        <r>   20.5026    0.0000 </r>
        <r>   20.6237    0.0000 </r>
        <r>   21.3492    0.0000 </r>
        <r>   22.0004    0.0000 </r>
        <r>   22.1595    0.0000 </r>
        <r>   22.7536    0.0000 </r>
       </set>
      </set>
     </set>
    </array>
   </eigenvalues>
   <array>
    <dimension dim="1">ion</dimension>
    <dimension dim="2">band</dimension>
    <dimension dim="3">kpoint</dimension>
    <dimension dim="4">spin</dimension>
    <field>    s</field>
    <field>   py</field>
    <field>   pz</field>
    <field>   px</field>
    <field>  dxy</field>
    <field>  dyz</field>
    <field>  dz2</field>
    <field>  dxz</field>
    <field>x2-y2</field>
    <set>
     <set comment="spin1">
      <set comment="kpoint 1">
       <set comment="band 1">
        <r>  0.2025  0.0000  0.0000  0.0015  0.0000  0.0001  0.0000  0.0000  0.0000 </r>
        <r>  0.2025  0.0011  0.0000  0.0004  0.0000  0.0000  0.0000  0.0001  0.0000 </r>
        <r>  0.2026  0.0011  0.0000  0.0004  0.0000  0.0000  0.0000  0.0001  0.0000 </r>
       </set>
       <set comment="band 2">
        <r>  0.3225  0.0004  0.0074  0.0000  0.0001  0.0000  0.0001  0.0002  0.0000 </r>
        <r>  0.3402  0.0002  0.0063  0.0002  0.0000  0.0001  0.0001  0.0000  0.0001 </r>
        <r>  0.0002  0.0003  0.0273  0.0010  0.0001  0.0005  0.0000  0.0002  0.0002 </r>
       </set>
       <set comment="band 3">
        <r>  0.1194  0.0010  0.0200  0.0000  0.0002  0.0000  0.0000  0.0005  0.0000 </r>
        <r>  0.1018  0.0002  0.0210  0.0008  0.0001  0.0004  0.0000  0.0001  0.0002 </r>
        <r>  0.4417  0.0000  0.0000  0.0000  0.0000  0.0000  0.0001  0.0000  0.0000 </r>
       </set>
       <set comment="band 4">
        <r>  0.0002  0.0000  0.0000  0.1633  0.0000  0.0009  0.0005  0.0000  0.0017 </r>
        <r>  0.0002  0.1225  0.0000  0.0408  0.0013  0.0002  0.0005  0.0007  0.0004 </r>
        <r>  0.0002  0.1225  0.0000  0.0408  0.0013  0.0002  0.0005  0.0007  0.0004 </r>
       </set>
       <set comment="band 5">
        <r>  0.0128  0.0530  0.1144  0.0234  0.0007  0.0001  0.0002  0.0026  0.0000 </r>
        <r>  0.0154  0.0011  0.1076  0.0768  0.0001  0.0014  0.0002  0.0011  0.0006 </r>
        <r>  0.0563  0.0750  0.0001  0.0276  0.0000  0.0001  0.0007  0.0003  0.0000 </r>
       </set>
       <set comment="band 6">
        <r>  0.0435  0.0156  0.0337  0.0793  0.0002  0.0002  0.0005  0.0008  0.0000 </r>
        <r>  0.0409  0.0930  0.0405  0.0003  0.0002  0.0011  0.0005  0.0000  0.0001 </r>
        <r>  0.0000  0.0191  0.1480  0.0495  0.0002  0.0025  0.0000  0.0008  0.0007 </r>
       </set>
       <set comment="band 7">
        <r>  0.0200  0.0421  0.0196  0.0048  0.0003  0.0000  0.0021  0.0001  0.0024 </r>
        <r>  0.0183  0.0305  0.0258  0.0292  0.0025  0.0001  0.0020  0.0000  0.0000 </r>
        <r>  0.0000  0.0497  0.0904  0.1444  0.0004  0.0003  0.0000  0.0001  0.0009 </r>
       </set>
       <set comment="band 8">
        <r>  0.0055  0.1523  0.0709  0.0013  0.0010  0.0000  0.0006  0.0003  0.0007 </r>
        <r>  0.0073  0.0226  0.0647  0.1181  0.0001  0.0002  0.0008  0.0001  0.0017 </r>
        <r>  0.0255  0.0034  0.0001  0.0029  0.0022  0.0000  0.0027  0.0000  0.0008 </r>
       </set>
       <set comment="band 9">
        <r>  0.0000  0.1581  0.0119  0.0000  0.0014  0.0000  0.0000  0.0007  0.0000 </r>
        <r>  0.0000  0.0395  0.0119  0.1186  0.0003  0.0005  0.0000  0.0002  0.0010 </r>
        <r>  0.0000  0.0395  0.0119  0.1186  0.0003  0.0005  0.0000  0.0002  0.0010 </r>
       </set>
       <set comment="band 10">
        <r>  0.0138  0.0204  0.0088  0.1771  0.0001  0.0021  0.0004  0.0013  0.0000 </r>
        <r>  0.0146  0.0955  0.0074  0.1089  0.0000  0.0000  0.0004  0.0033  0.0001 </r>
        <r>  0.0000  0.0218  0.0323  0.0536  0.0000  0.0038  0.0000  0.0012  0.0001 </r>
       </set>
       <set comment="band 11">
        <r>  0.0051  0.0548  0.0235  0.0659  0.0001  0.0008  0.0001  0.0036  0.0000 </r>
        <r>  0.0043  0.1055  0.0249  0.0082  0.0001  0.0044  0.0001  0.0001  0.0001 </r>
        <r>  0.0189  0.1793  0.0000  0.0636  0.0000  0.0006  0.0005  0.0022  0.0000 </r>
       </set>
       <set comment="band 12">
        <r>  0.0000  0.0054  0.1690  0.0000  0.0059  0.0000  0.0000  0.0019  0.0000 </r>
        <r>  0.0000  0.0014  0.1690  0.0041  0.0015  0.0014  0.0000  0.0005  0.0045 </r>
        <r>  0.0000  0.0014  0.1690  0.0041  0.0015  0.0014  0.0000  0.0005  0.0045 </r>
       </set>
       <set comment="band 13">
        <r>  0.0001  0.0005  0.0086  0.0005  0.0031  0.0058  0.0509  0.0037  0.0078 </r>
        <r>  0.0001  0.0000  0.0128  0.0012  0.0014  0.0100  0.0447  0.0006  0.0100 </r>
        <r>  0.0000  0.0006  0.0424  0.0020  0.0032  0.0142  0.0002  0.0040  0.0119 </r>
       </set>
       <set comment="band 14">
        <r>  0.0000  0.0020  0.0339  0.0001  0.0121  0.0015  0.0129  0.0146  0.0020 </r>
        <r>  0.0000  0.0011  0.0297  0.0009  0.0097  0.0055  0.0192  0.0094  0.0038 </r>
        <r>  0.0001  0.0005  0.0001  0.0001  0.0079  0.0013  0.0637  0.0060  0.0019 </r>
       </set>
       <set comment="band 15">
        <r>  0.0674  0.0000  0.0000  0.0032  0.0000  0.0081  0.0004  0.0000  0.0012 </r>
        <r>  0.0674  0.0024  0.0000  0.0008  0.0009  0.0020  0.0004  0.0060  0.0003 </r>
        <r>  0.0674  0.0024  0.0000  0.0008  0.0009  0.0020  0.0004  0.0060  0.0003 </r>
       </set>
       <set comment="band 16">
        <r>  0.0003  0.0103  0.0065  0.0001  0.0020  0.0032  0.0037  0.0469  0.0170 </r>
        <r>  0.0003  0.0033  0.0065  0.0071  0.0081  0.0255  0.0036  0.0248  0.0108 </r>
        <r>  0.0012  0.0002  0.0000  0.0001  0.0509  0.0032  0.0145  0.0095  0.0170 </r>
       </set>
       <set comment="band 17">
        <r>  0.0009  0.0034  0.0022  0.0002  0.0007  0.0096  0.0109  0.0157  0.0508 </r>
        <r>  0.0009  0.0003  0.0022  0.0033  0.0434  0.0247  0.0109  0.0005  0.0082 </r>
        <r>  0.0000  0.0034  0.0086  0.0103  0.0007  0.0470  0.0000  0.0157  0.0020 </r>
       </set>
       <set comment="band 18">
        <r>  0.0049  0.0000  0.0000  0.0059  0.0000  0.0389  0.0003  0.0000  0.0397 </r>
        <r>  0.0049  0.0044  0.0000  0.0015  0.0298  0.0097  0.0003  0.0292  0.0099 </r>
        <r>  0.0049  0.0044  0.0000  0.0015  0.0298  0.0097  0.0003  0.0292  0.0099 </r>
       </set>
       <set comment="band 19">
        <r>  0.0000  0.0124  0.0044  0.0000  0.0415  0.0000  0.0000  0.0111  0.0000 </r>
        <r>  0.0000  0.0031  0.0044  0.0093  0.0104  0.0083  0.0000  0.0028  0.0312 </r>
        <r>  0.0000  0.0031  0.0044  0.0093  0.0104  0.0083  0.0000  0.0028  0.0312 </r>
       </set>
       <set comment="band 20">
        <r>  0.0000  0.0043  0.0019  0.0001  0.0391  0.0315  0.0020  0.0002  0.0008 </r>
        <r>  0.0000  0.0015  0.0031  0.0057  0.0136  0.0008  0.0004  0.0064  0.0512 </r>
        <r>  0.0000  0.0004  0.0002  0.0002  0.0042  0.0171  0.0042  0.0481  0.0015 </r>
       </set>
       <set comment="band 21">
        <r>  0.0000  0.0036  0.0016  0.0001  0.0328  0.0376  0.0024  0.0001  0.0009 </r>
        <r>  0.0000  0.0006  0.0003  0.0004  0.0056  0.0167  0.0040  0.0455  0.0031 </r>
        <r>  0.0000  0.0017  0.0033  0.0059  0.0151  0.0004  0.0003  0.0038  0.0529 </r>
       </set>
       <set comment="band 22">
        <r>  0.0000  0.0001  0.0009  0.0036  0.0010  0.0000  0.0403  0.0037  0.0030 </r>
        <r>  0.0000  0.0030  0.0015  0.0002  0.0005  0.0043  0.0338  0.0020  0.0038 </r>
        <r>  0.0000  0.0003  0.0048  0.0004  0.0011  0.0146  0.0003  0.0049  0.0044 </r>
       </set>
       <set comment="band 23">
        <r>  0.0000  0.0006  0.0039  0.0008  0.0045  0.0000  0.0093  0.0159  0.0007 </r>
        <r>  0.0000  0.0004  0.0033  0.0015  0.0037  0.0105  0.0158  0.0029  0.0013 </r>
        <r>  0.0000  0.0032  0.0000  0.0012  0.0031  0.0002  0.0493  0.0000  0.0007 </r>
       </set>
       <set comment="band 24">
        <r>  0.0000  0.0011  0.0017  0.0509  0.0005  0.0102  0.0115  0.0292  0.0445 </r>
        <r>  0.0000  0.0363  0.0050  0.0023  0.0293  0.0446  0.0081  0.0475  0.0032 </r>
        <r>  0.0000  0.0060  0.0125  0.0032  0.0039  0.1495  0.0004  0.0588  0.0013 </r>
       </set>
       <set comment="band 25">
        <r>  0.0000  0.0066  0.0109  0.0080  0.0030  0.0016  0.0018  0.1854  0.0070 </r>
        <r>  0.0000  0.0099  0.0078  0.0181  0.0102  0.1194  0.0053  0.0150  0.0125 </r>
        <r>  0.0000  0.0401  0.0004  0.0171  0.0357  0.0146  0.0129  0.0038  0.0144 </r>
       </set>
       <set comment="band 26">
        <r>  0.0000  0.0260  0.0351  0.0000  0.0217  0.0000  0.0000  0.0587  0.0000 </r>
        <r>  0.0000  0.0065  0.0369  0.0195  0.0057  0.0420  0.0000  0.0139  0.0159 </r>
        <r>  0.0000  0.0066  0.0366  0.0196  0.0056  0.0418  0.0000  0.0137  0.0158 </r>
       </set>
       <set comment="band 27">
        <r>  0.0068  0.0000  0.0000  0.0156  0.0000  0.1369  0.0455  0.0000  0.0736 </r>
        <r>  0.0068  0.0117  0.0000  0.0039  0.0552  0.0342  0.0455  0.1027  0.0184 </r>
        <r>  0.0068  0.0117  0.0000  0.0039  0.0552  0.0342  0.0455  0.1026  0.0184 </r>
       </set>
       <set comment="band 28">
        <r>  0.0000  0.0062  0.0202  0.0000  0.1383  0.0003  0.0000  0.0008  0.0001 </r>
        <r>  0.0081  0.0020  0.0078  0.0011  0.0810  0.0329  0.0211  0.0908  0.0035 </r>
        <r>  0.0086  0.0019  0.0065  0.0007  0.0799  0.0366  0.0224  0.0977  0.0013 </r>
       </set>
       <set comment="band 29">
        <r>  0.0123  0.0000  0.0000  0.0005  0.0002  0.1683  0.0322  0.0000  0.0625 </r>
        <r>  0.0033  0.0006  0.0193  0.0045  0.0017  0.0116  0.0087  0.0364  0.1155 </r>
        <r>  0.0028  0.0007  0.0190  0.0044  0.0042  0.0107  0.0075  0.0261  0.1173 </r>
       </set>
       <set comment="band 30">
        <r>  0.0014  0.0000  0.0000  0.0008  0.0000  0.0238  0.2506  0.0000  0.0159 </r>
        <r>  0.0014  0.0006  0.0000  0.0002  0.0120  0.0059  0.2505  0.0178  0.0040 </r>
        <r>  0.0014  0.0006  0.0000  0.0002  0.0119  0.0060  0.2505  0.0178  0.0040 </r>
       </set>
       <set comment="band 31">
        <r>  0.0005  0.0074  0.0233  0.0001  0.0052  0.0033  0.0019  0.0222  0.0018 </r>
        <r>  0.0146  0.0028  0.0386  0.0035  0.0404  0.0197  0.0505  0.0714  0.0013 </r>
        <r>  0.0168  0.0037  0.0307  0.0026  0.0365  0.0102  0.0580  0.0787  0.0060 </r>
       </set>
       <set comment="band 32">
        <r>  0.0243  0.0000  0.0023  0.0086  0.0008  0.0579  0.0846  0.0031  0.0567 </r>
        <r>  0.0083  0.0011  0.0408  0.0028  0.0056  0.0717  0.0291  0.0023  0.0246 </r>
        <r>  0.0051  0.0005  0.0473  0.0026  0.0028  0.0706  0.0177  0.0028  0.0219 </r>
       </set>
      </set>
      <set comment="kpoint 2">
       <set comment="band 1">
        <r>  0.2020  0.0001  0.0000  0.0021  0.0000  0.0001  0.0000  0.0000  0.0000 </r>
        <r>  0.2057  0.0013  0.0000  0.0006  0.0000  0.0000  0.0000  0.0001  0.0000 </r>
        <r>  0.2021  0.0014  0.0000  0.0008  0.0000  0.0000  0.0000  0.0001  0.0000 </r>
       </set>
       <set comment="band 2">
        <r>  0.3276  0.0004  0.0062  0.0002  0.0001  0.0000  0.0000  0.0002  0.0000 </r>
        <r>  0.0142  0.0007  0.0237  0.0015  0.0001  0.0005  0.0000  0.0002  0.0002 </r>
        <r>  0.3275  0.0003  0.0062  0.0003  0.0000  0.0002  0.0000  0.0001  0.0001 </r>
       </set>
       <set comment="band 3">
        <r>  0.1202  0.0010  0.0183  0.0000  0.0002  0.0000  0.0000  0.0006  0.0000 </r>
        <r>  0.4308  0.0000  0.0007  0.0000  0.0000  0.0000  0.0001  0.0000  0.0000 </r>
        <r>  0.1202  0.0002  0.0183  0.0008  0.0001  0.0004  0.0000  0.0002  0.0002 </r>
       </set>
       <set comment="band 4">
        <r>  0.0085  0.0136  0.0293  0.1229  0.0001  0.0004  0.0010  0.0003  0.0007 </r>
        <r>  0.0037  0.0180  0.0641  0.0229  0.0007  0.0001  0.0005  0.0001  0.0002 </r>
        <r>  0.0085  0.0603  0.0293  0.0763  0.0008  0.0001  0.0010  0.0007  0.0000 </r>
       </set>
       <set comment="band 5">
        <r>  0.0179  0.0053  0.0959  0.0362  0.0004  0.0001  0.0005  0.0008  0.0001 </r>
        <r>  0.0342  0.0702  0.0338  0.0735  0.0003  0.0012  0.0007  0.0009  0.0002 </r>
        <r>  0.0179  0.0284  0.0959  0.0131  0.0002  0.0010  0.0005  0.0000  0.0003 </r>
       </set>
       <set comment="band 6">
        <r>  0.0120  0.0830  0.0136  0.0393  0.0004  0.0001  0.0001  0.0009  0.0009 </r>
        <r>  0.0033  0.1191  0.0322  0.0543  0.0002  0.0008  0.0004  0.0005  0.0006 </r>
        <r>  0.0120  0.0962  0.0136  0.0261  0.0003  0.0009  0.0001  0.0001  0.0010 </r>
       </set>
       <set comment="band 7">
        <r>  0.0157  0.1218  0.0657  0.0111  0.0010  0.0003  0.0005  0.0005  0.0005 </r>
        <r>  0.0219  0.0088  0.0336  0.0263  0.0022  0.0008  0.0018  0.0003  0.0009 </r>
        <r>  0.0157  0.0414  0.0657  0.0916  0.0002  0.0008  0.0005  0.0000  0.0012 </r>
       </set>
       <set comment="band 8">
        <r>  0.0135  0.1402  0.0248  0.0280  0.0000  0.0007  0.0010  0.0001  0.0017 </r>
        <r>  0.0001  0.0406  0.0338  0.0319  0.0011  0.0004  0.0000  0.0001  0.0016 </r>
        <r>  0.0135  0.0483  0.0248  0.1199  0.0012  0.0003  0.0010  0.0004  0.0005 </r>
       </set>
       <set comment="band 9">
        <r>  0.0052  0.0476  0.0232  0.0296  0.0011  0.0002  0.0004  0.0033  0.0005 </r>
        <r>  0.0009  0.0682  0.0615  0.1920  0.0001  0.0006  0.0000  0.0003  0.0000 </r>
        <r>  0.0052  0.0379  0.0232  0.0393  0.0013  0.0020  0.0004  0.0015  0.0003 </r>
       </set>
       <set comment="band 10">
        <r>  0.0222  0.0223  0.0201  0.1608  0.0001  0.0016  0.0002  0.0021  0.0002 </r>
        <r>  0.0153  0.0041  0.0467  0.0057  0.0005  0.0030  0.0003  0.0025  0.0002 </r>
        <r>  0.0222  0.0746  0.0201  0.1086  0.0003  0.0004  0.0002  0.0034  0.0000 </r>
       </set>
       <set comment="band 11">
        <r>  0.0052  0.0534  0.0322  0.0583  0.0007  0.0016  0.0004  0.0033  0.0004 </r>
        <r>  0.0236  0.1505  0.0068  0.0529  0.0003  0.0014  0.0006  0.0019  0.0008 </r>
        <r>  0.0052  0.1009  0.0322  0.0108  0.0009  0.0043  0.0004  0.0005  0.0002 </r>
       </set>
       <set comment="band 12">
        <r>  0.0006  0.0076  0.1442  0.0096  0.0057  0.0007  0.0000  0.0020  0.0005 </r>
        <r>  0.0002  0.0178  0.1373  0.0261  0.0027  0.0030  0.0000  0.0021  0.0033 </r>
        <r>  0.0006  0.0115  0.1442  0.0058  0.0026  0.0018  0.0000  0.0009  0.0037 </r>
       </set>
       <set comment="band 13">
        <r>  0.0002  0.0084  0.0139  0.0002  0.0155  0.0016  0.0201  0.0031  0.0049 </r>
        <r>  0.0000  0.0081  0.0105  0.0066  0.0043  0.0027  0.0306  0.0070  0.0041 </r>
        <r>  0.0002  0.0032  0.0139  0.0053  0.0149  0.0025  0.0201  0.0022  0.0056 </r>
       </set>
       <set comment="band 14">
        <r>  0.0046  0.0012  0.0110  0.0007  0.0093  0.0059  0.0335  0.0034  0.0007 </r>
        <r>  0.0037  0.0028  0.0268  0.0085  0.0083  0.0026  0.0196  0.0018  0.0052 </r>
        <r>  0.0046  0.0001  0.0110  0.0019  0.0008  0.0007  0.0335  0.0086  0.0092 </r>
       </set>
       <set comment="band 15">
        <r>  0.0126  0.0002  0.0004  0.0025  0.0082  0.0071  0.0003  0.0087  0.0412 </r>
        <r>  0.0064  0.0024  0.0008  0.0009  0.0023  0.0476  0.0013  0.0171  0.0054 </r>
        <r>  0.0126  0.0025  0.0004  0.0002  0.0205  0.0151  0.0003  0.0007  0.0289 </r>
       </set>
       <set comment="band 16">
        <r>  0.0008  0.0019  0.0093  0.0017  0.0029  0.0436  0.0098  0.0174  0.0026 </r>
        <r>  0.0001  0.0007  0.0019  0.0003  0.0548  0.0031  0.0003  0.0024  0.0457 </r>
        <r>  0.0008  0.0021  0.0093  0.0015  0.0017  0.0112  0.0098  0.0498  0.0038 </r>
       </set>
       <set comment="band 17">
        <r>  0.0418  0.0041  0.0037  0.0193  0.0050  0.0073  0.0011  0.0009  0.0027 </r>
        <r>  0.0465  0.0069  0.0000  0.0147  0.0024  0.0046  0.0111  0.0022  0.0015 </r>
        <r>  0.0418  0.0087  0.0037  0.0147  0.0010  0.0046  0.0011  0.0036  0.0067 </r>
       </set>
       <set comment="band 18">
        <r>  0.0010  0.0046  0.0089  0.0050  0.0024  0.0058  0.0005  0.0402  0.0486 </r>
        <r>  0.0000  0.0001  0.0050  0.0003  0.0078  0.0150  0.0001  0.0316  0.0036 </r>
        <r>  0.0010  0.0087  0.0089  0.0009  0.0390  0.0445  0.0005  0.0015  0.0120 </r>
       </set>
       <set comment="band 19">
        <r>  0.0012  0.0056  0.0135  0.0030  0.0253  0.0039  0.0104  0.0122  0.0120 </r>
        <r>  0.0024  0.0057  0.0007  0.0118  0.0063  0.0040  0.0226  0.0101  0.0185 </r>
        <r>  0.0012  0.0047  0.0135  0.0039  0.0220  0.0155  0.0104  0.0006  0.0153 </r>
       </set>
       <set comment="band 20">
        <r>  0.0000  0.0077  0.0018  0.0004  0.0316  0.0294  0.0171  0.0004  0.0014 </r>
        <r>  0.0002  0.0021  0.0179  0.0037  0.0205  0.0091  0.0032  0.0223  0.0194 </r>
        <r>  0.0000  0.0008  0.0018  0.0074  0.0091  0.0058  0.0171  0.0240  0.0238 </r>
       </set>
       <set comment="band 21">
        <r>  0.0017  0.0118  0.0069  0.0027  0.0285  0.0303  0.0027  0.0032  0.0067 </r>
        <r>  0.0022  0.0036  0.0048  0.0053  0.0153  0.0125  0.0059  0.0261  0.0295 </r>
        <r>  0.0017  0.0015  0.0069  0.0130  0.0094  0.0027  0.0027  0.0308  0.0259 </r>
       </set>
       <set comment="band 22">
        <r>  0.0001  0.0012  0.0014  0.0021  0.0056  0.0009  0.0181  0.0125  0.0006 </r>
        <r>  0.0001  0.0023  0.0020  0.0009  0.0064  0.0105  0.0245  0.0052  0.0037 </r>
        <r>  0.0001  0.0017  0.0014  0.0015  0.0018  0.0096  0.0181  0.0038  0.0044 </r>
       </set>
       <set comment="band 23">
        <r>  0.0003  0.0001  0.0016  0.0030  0.0069  0.0019  0.0197  0.0148  0.0057 </r>
        <r>  0.0000  0.0027  0.0008  0.0043  0.0010  0.0101  0.0158  0.0088  0.0018 </r>
        <r>  0.0003  0.0022  0.0016  0.0009  0.0098  0.0095  0.0197  0.0072  0.0028 </r>
       </set>
       <set comment="band 24">
        <r>  0.0097  0.0025  0.0222  0.0199  0.0095  0.0130  0.0165  0.0938  0.0128 </r>
        <r>  0.0025  0.0066  0.0020  0.0148  0.0315  0.0160  0.0013  0.0378  0.0117 </r>
        <r>  0.0097  0.0095  0.0222  0.0129  0.0211  0.0450  0.0165  0.0617  0.0012 </r>
       </set>
       <set comment="band 25">
        <r>  0.0035  0.0101  0.0108  0.0133  0.0009  0.0235  0.0183  0.0451  0.0373 </r>
        <r>  0.0009  0.0179  0.0189  0.0064  0.0077  0.0806  0.0000  0.0426  0.0147 </r>
        <r>  0.0035  0.0202  0.0108  0.0032  0.0284  0.0583  0.0183  0.0103  0.0098 </r>
       </set>
       <set comment="band 26">
        <r>  0.0064  0.0172  0.0208  0.0086  0.0301  0.0302  0.0184  0.0398  0.0159 </r>
        <r>  0.0064  0.0093  0.0292  0.0039  0.0223  0.0180  0.0173  0.0119  0.0147 </r>
        <r>  0.0064  0.0123  0.0208  0.0134  0.0008  0.0076  0.0184  0.0626  0.0452 </r>
       </set>
       <set comment="band 27">
        <r>  0.0001  0.0058  0.0051  0.0069  0.0560  0.0975  0.0326  0.0106  0.0061 </r>
        <r>  0.0051  0.0142  0.0150  0.0062  0.0576  0.0029  0.0596  0.0082  0.0286 </r>
        <r>  0.0001  0.0013  0.0050  0.0114  0.0065  0.0445  0.0324  0.0636  0.0557 </r>
       </set>
       <set comment="band 28">
        <r>  0.0015  0.0041  0.0096  0.0067  0.0179  0.0152  0.0610  0.0144  0.0203 </r>
        <r>  0.0047  0.0075  0.0051  0.0057  0.0022  0.0455  0.1173  0.0562  0.0064 </r>
        <r>  0.0015  0.0050  0.0096  0.0059  0.0175  0.0275  0.0603  0.0024  0.0207 </r>
       </set>
       <set comment="band 29">
        <r>  0.0035  0.0037  0.0001  0.0005  0.0192  0.0361  0.0503  0.0177  0.0697 </r>
        <r>  0.0014  0.0077  0.0137  0.0058  0.0054  0.0595  0.0419  0.0489  0.0147 </r>
        <r>  0.0034  0.0015  0.0001  0.0026  0.0606  0.0388  0.0517  0.0140  0.0308 </r>
       </set>
       <set comment="band 30">
        <r>  0.0011  0.0114  0.0018  0.0014  0.0078  0.0301  0.0018  0.0310  0.0752 </r>
        <r>  0.0013  0.0024  0.0011  0.0025  0.0307  0.0737  0.0103  0.0536  0.0949 </r>
        <r>  0.0009  0.0070  0.0016  0.0057  0.0547  0.0554  0.0016  0.0118  0.0225 </r>
       </set>
       <set comment="band 31">
        <r>  0.0009  0.0014  0.0198  0.0266  0.0004  0.0225  0.0166  0.0077  0.0006 </r>
        <r>  0.0111  0.0107  0.0036  0.0174  0.0095  0.0326  0.0054  0.0119  0.0138 </r>
        <r>  0.0011  0.0188  0.0221  0.0092  0.0018  0.0122  0.0172  0.0154  0.0018 </r>
       </set>
       <set comment="band 32">
        <r>  0.0071  0.0030  0.0236  0.0074  0.0058  0.0316  0.1270  0.0254  0.0104 </r>
        <r>  0.0002  0.0060  0.0091  0.0072  0.0292  0.0073  0.0051  0.0110  0.0274 </r>
        <r>  0.0079  0.0042  0.0219  0.0097  0.0069  0.0033  0.1401  0.0472  0.0020 </r>
       </set>
      </set>
      <set comment="kpoint 3">
       <set comment="band 1">
        <r>  0.1999  0.0002  0.0000  0.0038  0.0000  0.0001  0.0001  0.0000  0.0000 </r>
        <r>  0.2175  0.0016  0.0000  0.0011  0.0001  0.0000  0.0000  0.0001  0.0000 </r>
        <r>  0.1999  0.0023  0.0000  0.0018  0.0000  0.0000  0.0001  0.0001  0.0000 </r>
       </set>
       <set comment="band 2">
        <r>  0.3215  0.0006  0.0040  0.0010  0.0001  0.0000  0.0000  0.0003  0.0000 </r>
        <r>  0.0333  0.0015  0.0158  0.0034  0.0001  0.0005  0.0000  0.0003  0.0002 </r>
        <r>  0.3215  0.0006  0.0040  0.0010  0.0001  0.0002  0.0000  0.0001  0.0001 </r>
       </set>
       <set comment="band 3">
        <r>  0.1390  0.0011  0.0134  0.0000  0.0003  0.0001  0.0000  0.0009  0.0000 </r>
        <r>  0.4147  0.0000  0.0011  0.0000  0.0000  0.0000  0.0000  0.0000  0.0000 </r>
        <r>  0.1390  0.0003  0.0134  0.0008  0.0002  0.0005  0.0000  0.0005  0.0002 </r>
       </set>
       <set comment="band 4">
        <r>  0.0017  0.0182  0.0388  0.0936  0.0001  0.0002  0.0010  0.0005  0.0003 </r>
        <r>  0.0013  0.0082  0.0821  0.0226  0.0002  0.0003  0.0004  0.0002  0.0001 </r>
        <r>  0.0017  0.0392  0.0388  0.0726  0.0003  0.0002  0.0010  0.0004  0.0000 </r>
       </set>
       <set comment="band 5">
        <r>  0.0157  0.0049  0.0985  0.0418  0.0002  0.0002  0.0003  0.0003  0.0000 </r>
        <r>  0.0178  0.0434  0.0427  0.0609  0.0003  0.0014  0.0006  0.0012  0.0002 </r>
        <r>  0.0157  0.0246  0.0985  0.0222  0.0001  0.0006  0.0003  0.0000  0.0002 </r>
       </set>
       <set comment="band 6">
        <r>  0.0049  0.0986  0.0066  0.0337  0.0002  0.0001  0.0000  0.0006  0.0007 </r>
        <r>  0.0023  0.1211  0.0048  0.0535  0.0002  0.0003  0.0006  0.0004  0.0005 </r>
        <r>  0.0049  0.0996  0.0066  0.0327  0.0002  0.0005  0.0000  0.0002  0.0007 </r>
       </set>
       <set comment="band 7">
        <r>  0.0193  0.0065  0.0595  0.0413  0.0004  0.0012  0.0004  0.0036  0.0006 </r>
        <r>  0.0000  0.0546  0.0108  0.1627  0.0015  0.0004  0.0002  0.0010  0.0007 </r>
        <r>  0.0193  0.0386  0.0595  0.0093  0.0009  0.0017  0.0004  0.0030  0.0000 </r>
       </set>
       <set comment="band 8">
        <r>  0.0119  0.1218  0.0304  0.0352  0.0015  0.0004  0.0006  0.0016  0.0000 </r>
        <r>  0.0177  0.0136  0.0961  0.0045  0.0015  0.0021  0.0007  0.0011  0.0006 </r>
        <r>  0.0119  0.0544  0.0304  0.1026  0.0003  0.0019  0.0006  0.0001  0.0012 </r>
       </set>
       <set comment="band 9">
        <r>  0.0060  0.1601  0.0244  0.0114  0.0000  0.0011  0.0005  0.0016  0.0008 </r>
        <r>  0.0028  0.0888  0.0000  0.0317  0.0012  0.0009  0.0000  0.0003  0.0010 </r>
        <r>  0.0060  0.0459  0.0244  0.1256  0.0006  0.0025  0.0005  0.0002  0.0002 </r>
       </set>
       <set comment="band 10">
        <r>  0.0129  0.0375  0.0347  0.0661  0.0018  0.0017  0.0006  0.0025  0.0007 </r>
        <r>  0.0186  0.0888  0.0550  0.0352  0.0008  0.0044  0.0010  0.0027  0.0014 </r>
        <r>  0.0129  0.0989  0.0347  0.0047  0.0019  0.0037  0.0006  0.0005  0.0006 </r>
       </set>
       <set comment="band 11">
        <r>  0.0118  0.0003  0.0481  0.0845  0.0018  0.0036  0.0001  0.0000  0.0015 </r>
        <r>  0.0288  0.0225  0.1656  0.0081  0.0011  0.0041  0.0000  0.0014  0.0009 </r>
        <r>  0.0118  0.0645  0.0481  0.0203  0.0022  0.0008  0.0001  0.0028  0.0011 </r>
       </set>
       <set comment="band 12">
        <r>  0.0096  0.0325  0.1167  0.0633  0.0030  0.0005  0.0000  0.0040  0.0012 </r>
        <r>  0.0067  0.0321  0.0009  0.0823  0.0029  0.0016  0.0001  0.0032  0.0014 </r>
        <r>  0.0096  0.0178  0.1167  0.0780  0.0032  0.0022  0.0000  0.0023  0.0009 </r>
       </set>
       <set comment="band 13">
        <r>  0.0008  0.0076  0.0041  0.0001  0.0187  0.0074  0.0124  0.0015  0.0040 </r>
        <r>  0.0001  0.0129  0.0055  0.0069  0.0103  0.0024  0.0178  0.0072  0.0038 </r>
        <r>  0.0008  0.0028  0.0041  0.0050  0.0152  0.0003  0.0124  0.0086  0.0075 </r>
       </set>
       <set comment="band 14">
        <r>  0.0058  0.0049  0.0025  0.0128  0.0098  0.0050  0.0275  0.0029  0.0011 </r>
        <r>  0.0023  0.0049  0.0131  0.0136  0.0082  0.0015  0.0187  0.0045  0.0044 </r>
        <r>  0.0058  0.0041  0.0025  0.0136  0.0044  0.0002  0.0275  0.0077  0.0065 </r>
       </set>
       <set comment="band 15">
        <r>  0.0022  0.0014  0.0024  0.0007  0.0136  0.0125  0.0011  0.0032  0.0427 </r>
        <r>  0.0003  0.0001  0.0000  0.0003  0.0078  0.0296  0.0025  0.0100  0.0213 </r>
        <r>  0.0022  0.0005  0.0024  0.0015  0.0171  0.0079  0.0011  0.0078  0.0391 </r>
       </set>
       <set comment="band 16">
        <r>  0.0016  0.0076  0.0103  0.0054  0.0008  0.0356  0.0178  0.0194  0.0114 </r>
        <r>  0.0003  0.0147  0.0086  0.0071  0.0289  0.0259  0.0001  0.0118  0.0364 </r>
        <r>  0.0016  0.0097  0.0103  0.0034  0.0061  0.0348  0.0178  0.0202  0.0061 </r>
       </set>
       <set comment="band 17">
        <r>  0.0281  0.0077  0.0129  0.0245  0.0032  0.0041  0.0008  0.0061  0.0120 </r>
        <r>  0.0284  0.0116  0.0150  0.0257  0.0014  0.0062  0.0154  0.0119  0.0013 </r>
        <r>  0.0281  0.0139  0.0129  0.0184  0.0141  0.0028  0.0008  0.0074  0.0011 </r>
       </set>
       <set comment="band 18">
        <r>  0.0003  0.0010  0.0235  0.0078  0.0103  0.0022  0.0107  0.0406  0.0244 </r>
        <r>  0.0015  0.0016  0.0021  0.0031  0.0131  0.0033  0.0342  0.0081  0.0048 </r>
        <r>  0.0003  0.0085  0.0235  0.0003  0.0253  0.0379  0.0107  0.0048  0.0095 </r>
       </set>
       <set comment="band 19">
        <r>  0.0037  0.0103  0.0076  0.0168  0.0225  0.0092  0.0107  0.0072  0.0191 </r>
        <r>  0.0048  0.0075  0.0003  0.0167  0.0068  0.0093  0.0197  0.0131  0.0154 </r>
        <r>  0.0037  0.0154  0.0076  0.0117  0.0147  0.0137  0.0107  0.0027  0.0270 </r>
       </set>
       <set comment="band 20">
        <r>  0.0002  0.0072  0.0043  0.0000  0.0134  0.0356  0.0329  0.0000  0.0047 </r>
        <r>  0.0001  0.0045  0.0189  0.0026  0.0265  0.0032  0.0064  0.0075  0.0317 </r>
        <r>  0.0002  0.0021  0.0043  0.0051  0.0042  0.0082  0.0329  0.0275  0.0139 </r>
       </set>
       <set comment="band 21">
        <r>  0.0010  0.0207  0.0147  0.0168  0.0275  0.0211  0.0060  0.0042  0.0048 </r>
        <r>  0.0048  0.0039  0.0121  0.0092  0.0201  0.0221  0.0046  0.0522  0.0260 </r>
        <r>  0.0010  0.0032  0.0147  0.0342  0.0082  0.0004  0.0060  0.0249  0.0240 </r>
       </set>
       <set comment="band 22">
        <r>  0.0014  0.0032  0.0028  0.0028  0.0170  0.0025  0.0073  0.0360  0.0041 </r>
        <r>  0.0021  0.0054  0.0020  0.0045  0.0177  0.0235  0.0136  0.0141  0.0062 </r>
        <r>  0.0014  0.0027  0.0028  0.0033  0.0106  0.0253  0.0073  0.0132  0.0105 </r>
       </set>
       <set comment="band 23">
        <r>  0.0136  0.0004  0.0089  0.0091  0.0042  0.0189  0.0056  0.0711  0.0176 </r>
        <r>  0.0026  0.0081  0.0031  0.0219  0.0003  0.0280  0.0011  0.0495  0.0006 </r>
        <r>  0.0136  0.0075  0.0089  0.0020  0.0212  0.0342  0.0056  0.0558  0.0007 </r>
       </set>
       <set comment="band 24">
        <r>  0.0101  0.0010  0.0056  0.0041  0.0297  0.0159  0.0280  0.0150  0.0182 </r>
        <r>  0.0016  0.0005  0.0099  0.0004  0.0252  0.0025  0.0024  0.0065  0.0089 </r>
        <r>  0.0101  0.0025  0.0056  0.0025  0.0411  0.0023  0.0280  0.0286  0.0068 </r>
       </set>
       <set comment="band 25">
        <r>  0.0026  0.0086  0.0118  0.0027  0.0013  0.0098  0.0333  0.0316  0.0242 </r>
        <r>  0.0021  0.0110  0.0080  0.0038  0.0088  0.0370  0.0000  0.0209  0.0201 </r>
        <r>  0.0026  0.0077  0.0118  0.0036  0.0142  0.0388  0.0333  0.0026  0.0113 </r>
       </set>
       <set comment="band 26">
        <r>  0.0016  0.0122  0.0082  0.0040  0.0337  0.0225  0.0120  0.0056  0.0595 </r>
        <r>  0.0007  0.0085  0.0031  0.0034  0.0251  0.0074  0.0071  0.0026  0.0561 </r>
        <r>  0.0016  0.0120  0.0082  0.0042  0.0144  0.0011  0.0120  0.0269  0.0788 </r>
       </set>
       <set comment="band 27">
        <r>  0.0082  0.0053  0.0021  0.0191  0.0270  0.0115  0.0561  0.0025  0.0027 </r>
        <r>  0.0020  0.0046  0.0042  0.0070  0.0371  0.0003  0.0886  0.0008  0.0170 </r>
        <r>  0.0082  0.0071  0.0021  0.0173  0.0157  0.0007  0.0562  0.0133  0.0140 </r>
       </set>
       <set comment="band 28">
        <r>  0.0006  0.0116  0.0028  0.0016  0.0244  0.0703  0.0279  0.0150  0.0085 </r>
        <r>  0.0026  0.0160  0.0000  0.0056  0.0132  0.0328  0.0245  0.0168  0.0215 </r>
        <r>  0.0006  0.0077  0.0028  0.0055  0.0012  0.0452  0.0279  0.0401  0.0317 </r>
       </set>
       <set comment="band 29">
        <r>  0.0154  0.0034  0.0253  0.0031  0.0077  0.0004  0.0042  0.0534  0.0217 </r>
        <r>  0.0230  0.0063  0.0443  0.0044  0.0023  0.0303  0.0366  0.0666  0.0010 </r>
        <r>  0.0154  0.0004  0.0253  0.0061  0.0219  0.0362  0.0042  0.0176  0.0075 </r>
       </set>
       <set comment="band 30">
        <r>  0.0032  0.0059  0.0021  0.0035  0.0086  0.0454  0.0024  0.0070  0.0350 </r>
        <r>  0.0025  0.0007  0.0065  0.0010  0.0108  0.0163  0.0247  0.0056  0.0091 </r>
        <r>  0.0032  0.0049  0.0021  0.0047  0.0143  0.0322  0.0023  0.0205  0.0293 </r>
       </set>
       <set comment="band 31">
        <r>  0.0046  0.0012  0.0103  0.0019  0.0103  0.0024  0.0363  0.0012  0.0054 </r>
        <r>  0.0138  0.0116  0.0107  0.0147  0.0085  0.0613  0.0115  0.0291  0.0153 </r>
        <r>  0.0046  0.0022  0.0103  0.0009  0.0129  0.0010  0.0364  0.0026  0.0030 </r>
       </set>
       <set comment="band 32">
        <r>  0.0038  0.0013  0.0023  0.0155  0.0168  0.0118  0.0295  0.0374  0.0278 </r>
        <r>  0.0003  0.0031  0.0013  0.0081  0.0223  0.0619  0.0727  0.0217  0.0266 </r>
        <r>  0.0036  0.0093  0.0017  0.0147  0.0133  0.0162  0.0415  0.0308  0.0421 </r>
       </set>
      </set>
      <set comment="kpoint 4">
       <set comment="band 1">
        <r>  0.1931  0.0004  0.0001  0.0063  0.0000  0.0001  0.0001  0.0000  0.0000 </r>
        <r>  0.2457  0.0020  0.0000  0.0012  0.0002  0.0001  0.0001  0.0002  0.0001 </r>
        <r>  0.1931  0.0037  0.0001  0.0030  0.0000  0.0000  0.0001  0.0001  0.0000 </r>
       </set>
       <set comment="band 2">
        <r>  0.3188  0.0011  0.0016  0.0018  0.0002  0.0000  0.0000  0.0003  0.0000 </r>
        <r>  0.0255  0.0024  0.0091  0.0063  0.0001  0.0004  0.0000  0.0002  0.0001 </r>
        <r>  0.3188  0.0007  0.0016  0.0022  0.0001  0.0002  0.0000  0.0002  0.0001 </r>
       </set>
       <set comment="band 3">
        <r>  0.1545  0.0012  0.0084  0.0000  0.0004  0.0001  0.0000  0.0013  0.0000 </r>
        <r>  0.4077  0.0001  0.0005  0.0000  0.0000  0.0000  0.0000  0.0001  0.0000 </r>
        <r>  0.1545  0.0003  0.0084  0.0009  0.0002  0.0007  0.0000  0.0007  0.0002 </r>
       </set>
       <set comment="band 4">
        <r>  0.0002  0.0177  0.0446  0.0816  0.0001  0.0001  0.0007  0.0008  0.0001 </r>
        <r>  0.0000  0.0026  0.1149  0.0074  0.0000  0.0009  0.0001  0.0006  0.0001 </r>
        <r>  0.0002  0.0346  0.0446  0.0647  0.0001  0.0006  0.0007  0.0003  0.0001 </r>
       </set>
       <set comment="band 5">
        <r>  0.0113  0.0244  0.0996  0.0377  0.0001  0.0002  0.0000  0.0005  0.0000 </r>
        <r>  0.0052  0.0388  0.0252  0.0463  0.0003  0.0012  0.0004  0.0018  0.0001 </r>
        <r>  0.0113  0.0134  0.0996  0.0487  0.0000  0.0005  0.0000  0.0003  0.0002 </r>
       </set>
       <set comment="band 6">
        <r>  0.0050  0.0845  0.0091  0.0403  0.0001  0.0002  0.0001  0.0004  0.0003 </r>
        <r>  0.0017  0.1056  0.0001  0.0635  0.0001  0.0001  0.0007  0.0001  0.0002 </r>
        <r>  0.0050  0.1019  0.0091  0.0230  0.0001  0.0002  0.0001  0.0003  0.0002 </r>
       </set>
       <set comment="band 7">
        <r>  0.0182  0.0025  0.0464  0.0529  0.0002  0.0010  0.0006  0.0027  0.0003 </r>
        <r>  0.0028  0.0469  0.0161  0.1318  0.0007  0.0004  0.0002  0.0011  0.0003 </r>
        <r>  0.0182  0.0439  0.0464  0.0115  0.0005  0.0010  0.0006  0.0027  0.0000 </r>
       </set>
       <set comment="band 8">
        <r>  0.0090  0.0961  0.0399  0.0131  0.0005  0.0009  0.0014  0.0026  0.0003 </r>
        <r>  0.0171  0.1118  0.0253  0.0383  0.0035  0.0005  0.0006  0.0006  0.0012 </r>
        <r>  0.0090  0.0104  0.0399  0.0987  0.0003  0.0035  0.0014  0.0000  0.0004 </r>
       </set>
       <set comment="band 9">
        <r>  0.0102  0.1735  0.0213  0.0088  0.0011  0.0015  0.0002  0.0018  0.0002 </r>
        <r>  0.0000  0.0254  0.0619  0.0137  0.0003  0.0026  0.0000  0.0009  0.0005 </r>
        <r>  0.0102  0.0821  0.0213  0.1001  0.0006  0.0031  0.0002  0.0002  0.0007 </r>
       </set>
       <set comment="band 10">
        <r>  0.0083  0.0249  0.0624  0.0631  0.0023  0.0038  0.0003  0.0015  0.0013 </r>
        <r>  0.0346  0.0678  0.0376  0.0280  0.0019  0.0037  0.0012  0.0020  0.0012 </r>
        <r>  0.0083  0.0773  0.0624  0.0108  0.0031  0.0039  0.0003  0.0013  0.0005 </r>
       </set>
       <set comment="band 11">
        <r>  0.0142  0.0192  0.0500  0.0530  0.0033  0.0029  0.0000  0.0003  0.0014 </r>
        <r>  0.0150  0.0215  0.1524  0.0176  0.0018  0.0082  0.0001  0.0029  0.0014 </r>
        <r>  0.0142  0.0681  0.0500  0.0041  0.0035  0.0011  0.0000  0.0020  0.0013 </r>
       </set>
       <set comment="band 12">
        <r>  0.0073  0.0223  0.1001  0.1060  0.0013  0.0006  0.0004  0.0027  0.0014 </r>
        <r>  0.0047  0.0353  0.0438  0.1032  0.0016  0.0005  0.0000  0.0012  0.0006 </r>
        <r>  0.0073  0.0431  0.1001  0.0852  0.0025  0.0012  0.0004  0.0020  0.0002 </r>
       </set>
       <set comment="band 13">
        <r>  0.0017  0.0069  0.0012  0.0005  0.0182  0.0103  0.0100  0.0013  0.0036 </r>
        <r>  0.0000  0.0163  0.0005  0.0082  0.0109  0.0025  0.0145  0.0073  0.0037 </r>
        <r>  0.0017  0.0018  0.0013  0.0057  0.0143  0.0004  0.0100  0.0111  0.0075 </r>
       </set>
       <set comment="band 14">
        <r>  0.0046  0.0107  0.0004  0.0393  0.0102  0.0050  0.0200  0.0029  0.0022 </r>
        <r>  0.0013  0.0064  0.0022  0.0148  0.0084  0.0035  0.0162  0.0094  0.0046 </r>
        <r>  0.0046  0.0144  0.0004  0.0356  0.0074  0.0005  0.0200  0.0074  0.0049 </r>
       </set>
       <set comment="band 15">
        <r>  0.0004  0.0072  0.0047  0.0002  0.0167  0.0137  0.0015  0.0021  0.0460 </r>
        <r>  0.0001  0.0030  0.0007  0.0015  0.0101  0.0228  0.0053  0.0076  0.0261 </r>
        <r>  0.0004  0.0030  0.0047  0.0044  0.0169  0.0074  0.0015  0.0084  0.0458 </r>
       </set>
       <set comment="band 16">
        <r>  0.0021  0.0112  0.0172  0.0066  0.0001  0.0244  0.0285  0.0229  0.0093 </r>
        <r>  0.0006  0.0236  0.0157  0.0102  0.0214  0.0288  0.0073  0.0111  0.0262 </r>
        <r>  0.0021  0.0127  0.0172  0.0052  0.0068  0.0402  0.0285  0.0070  0.0026 </r>
       </set>
       <set comment="band 17">
        <r>  0.0092  0.0086  0.0146  0.0401  0.0063  0.0032  0.0024  0.0028  0.0177 </r>
        <r>  0.0151  0.0217  0.0287  0.0556  0.0018  0.0068  0.0140  0.0039  0.0010 </r>
        <r>  0.0092  0.0224  0.0146  0.0262  0.0240  0.0029  0.0024  0.0031  0.0000 </r>
       </set>
       <set comment="band 18">
        <r>  0.0020  0.0139  0.0136  0.0101  0.0204  0.0093  0.0263  0.0367  0.0010 </r>
        <r>  0.0017  0.0001  0.0031  0.0001  0.0015  0.0101  0.0833  0.0056  0.0043 </r>
        <r>  0.0020  0.0012  0.0136  0.0227  0.0088  0.0197  0.0263  0.0263  0.0126 </r>
       </set>
       <set comment="band 19">
        <r>  0.0011  0.0163  0.0119  0.0152  0.0088  0.0166  0.0011  0.0296  0.0333 </r>
        <r>  0.0003  0.0053  0.0002  0.0158  0.0228  0.0145  0.0002  0.0301  0.0188 </r>
        <r>  0.0011  0.0253  0.0119  0.0062  0.0124  0.0420  0.0011  0.0042  0.0297 </r>
       </set>
       <set comment="band 20">
        <r>  0.0011  0.0022  0.0002  0.0063  0.0005  0.0410  0.0504  0.0003  0.0172 </r>
        <r>  0.0000  0.0161  0.0134  0.0064  0.0207  0.0017  0.0015  0.0042  0.0396 </r>
        <r>  0.0011  0.0056  0.0002  0.0029  0.0133  0.0123  0.0504  0.0290  0.0043 </r>
       </set>
       <set comment="band 21">
        <r>  0.0237  0.0064  0.0272  0.0061  0.0078  0.0004  0.0189  0.0321  0.0146 </r>
        <r>  0.0079  0.0025  0.0018  0.0043  0.0254  0.0270  0.0000  0.0587  0.0282 </r>
        <r>  0.0237  0.0023  0.0272  0.0102  0.0171  0.0210  0.0189  0.0115  0.0053 </r>
       </set>
       <set comment="band 22">
        <r>  0.0008  0.0210  0.0074  0.0035  0.0235  0.0259  0.0079  0.0018  0.0549 </r>
        <r>  0.0000  0.0024  0.0034  0.0067  0.0004  0.0107  0.0209  0.0088  0.0008 </r>
        <r>  0.0008  0.0130  0.0074  0.0114  0.0164  0.0136  0.0079  0.0142  0.0621 </r>
       </set>
       <set comment="band 23">
        <r>  0.0062  0.0010  0.0050  0.0057  0.0252  0.0229  0.0317  0.0383  0.0023 </r>
        <r>  0.0121  0.0062  0.0005  0.0081  0.0210  0.0006  0.0126  0.0008  0.0587 </r>
        <r>  0.0062  0.0025  0.0050  0.0042  0.0051  0.0112  0.0317  0.0500  0.0224 </r>
       </set>
       <set comment="band 24">
        <r>  0.0143  0.0010  0.0040  0.0016  0.0017  0.0134  0.0177  0.0395  0.0216 </r>
        <r>  0.0073  0.0075  0.0004  0.0027  0.0307  0.0430  0.0041  0.0455  0.0249 </r>
        <r>  0.0143  0.0008  0.0040  0.0019  0.0187  0.0188  0.0177  0.0341  0.0047 </r>
       </set>
       <set comment="band 25">
        <r>  0.0088  0.0156  0.0063  0.0108  0.0208  0.0301  0.0273  0.0198  0.0075 </r>
        <r>  0.0006  0.0045  0.0067  0.0123  0.0276  0.0158  0.0312  0.0402  0.0224 </r>
        <r>  0.0088  0.0033  0.0064  0.0231  0.0170  0.0077  0.0273  0.0422  0.0112 </r>
       </set>
       <set comment="band 26">
        <r>  0.0023  0.0093  0.0038  0.0044  0.0508  0.0320  0.0074  0.0319  0.0249 </r>
        <r>  0.0027  0.0169  0.0003  0.0081  0.0219  0.0265  0.0126  0.0096  0.0198 </r>
        <r>  0.0023  0.0110  0.0038  0.0027  0.0006  0.0526  0.0074  0.0113  0.0751 </r>
       </set>
       <set comment="band 27">
        <r>  0.0172  0.0083  0.0199  0.0005  0.0190  0.0042  0.0144  0.0308  0.0412 </r>
        <r>  0.0110  0.0036  0.0372  0.0028  0.0105  0.0153  0.0340  0.0343  0.0046 </r>
        <r>  0.0172  0.0007  0.0199  0.0081  0.0483  0.0301  0.0144  0.0049  0.0119 </r>
       </set>
       <set comment="band 28">
        <r>  0.0057  0.0003  0.0049  0.0010  0.0380  0.0080  0.0017  0.0000  0.0102 </r>
        <r>  0.0004  0.0011  0.0065  0.0025  0.0059  0.0152  0.0000  0.0074  0.0065 </r>
        <r>  0.0057  0.0012  0.0049  0.0000  0.0337  0.0016  0.0017  0.0064  0.0146 </r>
       </set>
       <set comment="band 29">
        <r>  0.0016  0.0039  0.0010  0.0034  0.0067  0.0260  0.0258  0.0238  0.0030 </r>
        <r>  0.0176  0.0124  0.0100  0.0072  0.0408  0.0077  0.0275  0.0146  0.0248 </r>
        <r>  0.0016  0.0004  0.0010  0.0069  0.0072  0.0069  0.0258  0.0429  0.0025 </r>
       </set>
       <set comment="band 30">
        <r>  0.0072  0.0035  0.0017  0.0069  0.0341  0.0218  0.0186  0.0010  0.0307 </r>
        <r>  0.0015  0.0033  0.0122  0.0030  0.0080  0.0095  0.0038  0.0077  0.0226 </r>
        <r>  0.0072  0.0100  0.0017  0.0003  0.0125  0.0097  0.0186  0.0131  0.0523 </r>
       </set>
       <set comment="band 31">
        <r>  0.0009  0.0015  0.0031  0.0079  0.0135  0.0057  0.0304  0.0074  0.0027 </r>
        <r>  0.0000  0.0051  0.0001  0.0146  0.0007  0.0208  0.0037  0.0166  0.0003 </r>
        <r>  0.0008  0.0034  0.0031  0.0059  0.0102  0.0024  0.0302  0.0108  0.0060 </r>
       </set>
       <set comment="band 32">
        <r>  0.0019  0.0031  0.0073  0.0023  0.0165  0.0010  0.0396  0.0042  0.0084 </r>
        <r>  0.0045  0.0018  0.0016  0.0022  0.0219  0.0258  0.1431  0.0324  0.0082 </r>
        <r>  0.0019  0.0003  0.0073  0.0052  0.0082  0.0016  0.0399  0.0036  0.0169 </r>
       </set>
      </set>
      <set comment="kpoint 5">
       <set comment="band 1">
        <r>  0.1839  0.0003  0.0002  0.0081  0.0000  0.0001  0.0001  0.0000  0.0000 </r>
        <r>  0.2771  0.0021  0.0000  0.0007  0.0002  0.0001  0.0001  0.0003  0.0001 </r>
        <r>  0.1840  0.0048  0.0002  0.0037  0.0000  0.0001  0.0001  0.0001  0.0000 </r>
       </set>
       <set comment="band 2">
        <r>  0.3231  0.0014  0.0007  0.0015  0.0002  0.0000  0.0000  0.0003  0.0000 </r>
        <r>  0.0000  0.0028  0.0068  0.0083  0.0000  0.0004  0.0000  0.0001  0.0001 </r>
        <r>  0.3231  0.0002  0.0007  0.0027  0.0001  0.0002  0.0000  0.0001  0.0001 </r>
       </set>
       <set comment="band 3">
        <r>  0.1604  0.0013  0.0063  0.0000  0.0004  0.0001  0.0000  0.0014  0.0001 </r>
        <r>  0.4067  0.0001  0.0000  0.0000  0.0000  0.0000  0.0000  0.0001  0.0000 </r>
        <r>  0.1604  0.0003  0.0063  0.0009  0.0003  0.0008  0.0000  0.0008  0.0002 </r>
       </set>
       <set comment="band 4">
        <r>  0.0003  0.0068  0.0540  0.0773  0.0001  0.0001  0.0003  0.0007  0.0001 </r>
        <r>  0.0000  0.0000  0.1497  0.0001  0.0001  0.0015  0.0000  0.0005  0.0002 </r>
        <r>  0.0003  0.0399  0.0540  0.0443  0.0000  0.0007  0.0003  0.0000  0.0001 </r>
       </set>
       <set comment="band 5">
        <r>  0.0093  0.0690  0.0873  0.0303  0.0001  0.0001  0.0000  0.0015  0.0000 </r>
        <r>  0.0008  0.0446  0.0000  0.0149  0.0003  0.0010  0.0002  0.0030  0.0001 </r>
        <r>  0.0093  0.0004  0.0873  0.0989  0.0000  0.0008  0.0000  0.0007  0.0001 </r>
       </set>
       <set comment="band 6">
        <r>  0.0051  0.0522  0.0155  0.0990  0.0000  0.0000  0.0002  0.0001  0.0003 </r>
        <r>  0.0046  0.0750  0.0000  0.0250  0.0004  0.0001  0.0010  0.0003  0.0001 </r>
        <r>  0.0051  0.1495  0.0155  0.0016  0.0003  0.0000  0.0002  0.0001  0.0000 </r>
       </set>
       <set comment="band 7">
        <r>  0.0194  0.0021  0.0453  0.0018  0.0000  0.0012  0.0007  0.0018  0.0000 </r>
        <r>  0.0000  0.0655  0.0099  0.1964  0.0000  0.0000  0.0000  0.0000  0.0001 </r>
        <r>  0.0194  0.0002  0.0453  0.0038  0.0000  0.0004  0.0007  0.0026  0.0000 </r>
       </set>
       <set comment="band 8">
        <r>  0.0061  0.0911  0.0389  0.0080  0.0001  0.0010  0.0017  0.0033  0.0003 </r>
        <r>  0.0158  0.1419  0.0000  0.0473  0.0038  0.0002  0.0006  0.0005  0.0013 </r>
        <r>  0.0061  0.0054  0.0389  0.0937  0.0004  0.0042  0.0017  0.0000  0.0000 </r>
       </set>
       <set comment="band 9">
        <r>  0.0131  0.1709  0.0210  0.0097  0.0016  0.0016  0.0001  0.0016  0.0000 </r>
        <r>  0.0000  0.0025  0.0896  0.0075  0.0002  0.0030  0.0000  0.0010  0.0005 </r>
        <r>  0.0131  0.0853  0.0210  0.0953  0.0006  0.0030  0.0001  0.0002  0.0010 </r>
       </set>
       <set comment="band 10">
        <r>  0.0014  0.0017  0.0902  0.0693  0.0017  0.0062  0.0002  0.0014  0.0015 </r>
        <r>  0.0515  0.0760  0.0000  0.0253  0.0037  0.0003  0.0013  0.0008  0.0012 </r>
        <r>  0.0014  0.0618  0.0902  0.0092  0.0030  0.0052  0.0002  0.0024  0.0003 </r>
       </set>
       <set comment="band 11">
        <r>  0.0213  0.0454  0.0256  0.0410  0.0044  0.0008  0.0000  0.0002  0.0014 </r>
        <r>  0.0000  0.0066  0.1797  0.0199  0.0004  0.0129  0.0000  0.0043  0.0012 </r>
        <r>  0.0213  0.0795  0.0256  0.0069  0.0042  0.0000  0.0000  0.0010  0.0015 </r>
       </set>
       <set comment="band 12">
        <r>  0.0015  0.0052  0.0010  0.0002  0.0184  0.0110  0.0095  0.0009  0.0039 </r>
        <r>  0.0001  0.0175  0.0000  0.0058  0.0117  0.0022  0.0138  0.0065  0.0039 </r>
        <r>  0.0015  0.0022  0.0010  0.0031  0.0148  0.0007  0.0095  0.0111  0.0075 </r>
       </set>
       <set comment="band 13">
        <r>  0.0028  0.0212  0.1049  0.1184  0.0004  0.0006  0.0007  0.0013  0.0002 </r>
        <r>  0.0000  0.0389  0.0581  0.1168  0.0000  0.0001  0.0000  0.0000  0.0000 </r>
        <r>  0.0028  0.0507  0.1049  0.0889  0.0006  0.0003  0.0007  0.0015  0.0001 </r>
       </set>
       <set comment="band 14">
        <r>  0.0001  0.0194  0.0057  0.0779  0.0111  0.0092  0.0006  0.0015  0.0011 </r>
        <r>  0.0028  0.0052  0.0000  0.0017  0.0120  0.0059  0.0139  0.0177  0.0040 </r>
        <r>  0.0001  0.0296  0.0057  0.0678  0.0067  0.0002  0.0006  0.0105  0.0055 </r>
       </set>
       <set comment="band 15">
        <r>  0.0014  0.0016  0.0011  0.0310  0.0166  0.0018  0.0194  0.0117  0.0168 </r>
        <r>  0.0000  0.0230  0.0211  0.0690  0.0060  0.0274  0.0000  0.0091  0.0180 </r>
        <r>  0.0014  0.0298  0.0011  0.0029  0.0312  0.0132  0.0194  0.0003  0.0022 </r>
       </set>
       <set comment="band 16">
        <r>  0.0015  0.0033  0.0073  0.0000  0.0216  0.0166  0.0020  0.0087  0.0781 </r>
        <r>  0.0036  0.0232  0.0000  0.0077  0.0112  0.0004  0.0011  0.0013  0.0037 </r>
        <r>  0.0015  0.0007  0.0073  0.0027  0.0284  0.0211  0.0020  0.0042  0.0712 </r>
       </set>
       <set comment="band 17">
        <r>  0.0013  0.0420  0.0075  0.0003  0.0008  0.0159  0.0417  0.0058  0.0004 </r>
        <r>  0.0000  0.0021  0.0089  0.0062  0.0005  0.0489  0.0000  0.0163  0.0016 </r>
        <r>  0.0013  0.0077  0.0075  0.0346  0.0000  0.0166  0.0417  0.0051  0.0012 </r>
       </set>
       <set comment="band 18">
        <r>  0.0136  0.0000  0.0325  0.0003  0.0034  0.0001  0.0040  0.0373  0.0273 </r>
        <r>  0.0013  0.0113  0.0000  0.0038  0.0150  0.0025  0.1003  0.0076  0.0050 </r>
        <r>  0.0136  0.0002  0.0325  0.0002  0.0129  0.0295  0.0040  0.0079  0.0178 </r>
       </set>
       <set comment="band 19">
        <r>  0.0009  0.0000  0.0000  0.0011  0.0000  0.0003  0.0549  0.0112  0.0045 </r>
        <r>  0.0000  0.0073  0.0234  0.0219  0.0304  0.0024  0.0000  0.0008  0.0911 </r>
        <r>  0.0009  0.0008  0.0000  0.0003  0.0035  0.0069  0.0549  0.0046  0.0010 </r>
       </set>
       <set comment="band 20">
        <r>  0.0125  0.0050  0.0013  0.0010  0.0000  0.0623  0.0303  0.0210  0.0277 </r>
        <r>  0.0129  0.0187  0.0000  0.0062  0.0107  0.0152  0.0046  0.0456  0.0036 </r>
        <r>  0.0125  0.0039  0.0013  0.0021  0.0211  0.0000  0.0303  0.0833  0.0066 </r>
       </set>
       <set comment="band 21">
        <r>  0.0220  0.0186  0.0403  0.0082  0.0173  0.0017  0.0057  0.0358  0.0006 </r>
        <r>  0.0000  0.0000  0.0209  0.0000  0.0077  0.0367  0.0000  0.0122  0.0231 </r>
        <r>  0.0220  0.0001  0.0403  0.0267  0.0077  0.0340  0.0057  0.0035  0.0103 </r>
       </set>
       <set comment="band 22">
        <r>  0.0000  0.0384  0.0149  0.0067  0.0169  0.0175  0.0012  0.0880  0.0006 </r>
        <r>  0.0224  0.0001  0.0000  0.0000  0.0074  0.0050  0.0100  0.0149  0.0025 </r>
        <r>  0.0000  0.0286  0.0149  0.0165  0.0019  0.1044  0.0012  0.0011  0.0156 </r>
       </set>
       <set comment="band 23">
        <r>  0.0108  0.0029  0.0023  0.0195  0.0044  0.0828  0.0255  0.0022  0.0004 </r>
        <r>  0.0000  0.0003  0.0002  0.0009  0.0339  0.0002  0.0000  0.0001  0.1017 </r>
        <r>  0.0108  0.0218  0.0023  0.0006  0.0003  0.0107  0.0255  0.0742  0.0045 </r>
       </set>
       <set comment="band 24">
        <r>  0.0114  0.0000  0.0039  0.0005  0.0337  0.0040  0.0087  0.0042  0.0108 </r>
        <r>  0.0012  0.0156  0.0000  0.0052  0.0330  0.0205  0.1102  0.0615  0.0110 </r>
        <r>  0.0114  0.0005  0.0039  0.0001  0.0000  0.0006  0.0087  0.0076  0.0445 </r>
       </set>
       <set comment="band 25">
        <r>  0.0001  0.0002  0.0009  0.0025  0.0453  0.0057  0.0017  0.0207  0.1238 </r>
        <r>  0.0000  0.0019  0.0050  0.0057  0.0028  0.0313  0.0000  0.0104  0.0083 </r>
        <r>  0.0001  0.0013  0.0009  0.0015  0.0393  0.0263  0.0017  0.0000  0.1298 </r>
       </set>
       <set comment="band 26">
        <r>  0.0000  0.0001  0.0002  0.0022  0.0162  0.0210  0.0792  0.0026  0.0060 </r>
        <r>  0.0131  0.0127  0.0000  0.0042  0.0536  0.0161  0.0169  0.0482  0.0179 </r>
        <r>  0.0000  0.0019  0.0002  0.0003  0.0171  0.0008  0.0792  0.0228  0.0051 </r>
       </set>
       <set comment="band 27">
        <r>  0.0174  0.0004  0.0018  0.0004  0.0110  0.0106  0.0030  0.0227  0.0189 </r>
        <r>  0.0000  0.0056  0.0013  0.0167  0.0091  0.0023  0.0000  0.0008  0.0274 </r>
        <r>  0.0174  0.0001  0.0018  0.0007  0.0294  0.0062  0.0030  0.0270  0.0005 </r>
       </set>
       <set comment="band 28">
        <r>  0.0127  0.0037  0.0070  0.0019  0.0000  0.0046  0.0104  0.0122  0.0108 </r>
        <r>  0.0238  0.0056  0.0000  0.0019  0.0002  0.0132  0.0011  0.0397  0.0001 </r>
        <r>  0.0127  0.0046  0.0070  0.0009  0.0087  0.0038  0.0104  0.0129  0.0021 </r>
       </set>
       <set comment="band 29">
        <r>  0.0001  0.0118  0.0090  0.0172  0.0728  0.0117  0.0281  0.0037  0.0000 </r>
        <r>  0.0000  0.0095  0.0634  0.0284  0.0002  0.0001  0.0000  0.0000  0.0006 </r>
        <r>  0.0001  0.0035  0.0090  0.0254  0.0179  0.0000  0.0281  0.0155  0.0549 </r>
       </set>
       <set comment="band 30">
        <r>  0.0024  0.0079  0.0194  0.0049  0.0379  0.0005  0.0424  0.0051  0.0143 </r>
        <r>  0.0022  0.0000  0.0000  0.0000  0.0480  0.0000  0.1227  0.0000  0.0164 </r>
        <r>  0.0023  0.0003  0.0195  0.0129  0.0395  0.0025  0.0421  0.0029  0.0116 </r>
       </set>
       <set comment="band 31">
        <r>  0.0004  0.0001  0.0000  0.0109  0.0120  0.0048  0.0120  0.0001  0.0267 </r>
        <r>  0.0000  0.0003  0.0149  0.0007  0.0113  0.1317  0.0000  0.0443  0.0324 </r>
        <r>  0.0004  0.0074  0.0000  0.0036  0.0397  0.0019  0.0128  0.0033  0.0002 </r>
       </set>
       <set comment="band 32">
        <r>  0.0014  0.0003  0.0005  0.0040  0.0010  0.0693  0.0116  0.0062  0.0029 </r>
        <r>  0.0085  0.0056  0.0000  0.0021  0.0032  0.0066  0.0130  0.0174  0.0011 </r>
        <r>  0.0012  0.0022  0.0004  0.0022  0.0008  0.0399  0.0110  0.0343  0.0024 </r>
       </set>
      </set>
      <set comment="kpoint 6">
       <set comment="band 1">
        <r>  0.2086  0.0006  0.0000  0.0023  0.0000  0.0001  0.0000  0.0000  0.0001 </r>
        <r>  0.2086  0.0023  0.0000  0.0005  0.0001  0.0000  0.0000  0.0001  0.0000 </r>
        <r>  0.1974  0.0028  0.0000  0.0009  0.0000  0.0000  0.0000  0.0001  0.0000 </r>
       </set>
       <set comment="band 2">
        <r>  0.1091  0.0022  0.0139  0.0007  0.0002  0.0001  0.0000  0.0006  0.0001 </r>
        <r>  0.1091  0.0011  0.0139  0.0018  0.0001  0.0006  0.0000  0.0001  0.0002 </r>
        <r>  0.4592  0.0004  0.0000  0.0001  0.0000  0.0000  0.0000  0.0000  0.0000 </r>
       </set>
       <set comment="band 3">
        <r>  0.3422  0.0006  0.0054  0.0000  0.0001  0.0000  0.0000  0.0002  0.0000 </r>
        <r>  0.3422  0.0001  0.0054  0.0005  0.0000  0.0002  0.0000  0.0000  0.0001 </r>
        <r>  0.0000  0.0003  0.0195  0.0010  0.0001  0.0010  0.0000  0.0003  0.0004 </r>
       </set>
       <set comment="band 4">
        <r>  0.0011  0.0202  0.0757  0.0345  0.0001  0.0000  0.0006  0.0005  0.0004 </r>
        <r>  0.0011  0.0463  0.0757  0.0084  0.0002  0.0003  0.0006  0.0002  0.0003 </r>
        <r>  0.0074  0.1200  0.0000  0.0400  0.0003  0.0001  0.0014  0.0003  0.0001 </r>
       </set>
       <set comment="band 5">
        <r>  0.0154  0.0528  0.0218  0.0551  0.0001  0.0003  0.0006  0.0004  0.0002 </r>
        <r>  0.0154  0.0888  0.0218  0.0192  0.0001  0.0007  0.0006  0.0000  0.0002 </r>
        <r>  0.0000  0.0121  0.1241  0.0364  0.0001  0.0007  0.0000  0.0002  0.0004 </r>
       </set>
       <set comment="band 6">
        <r>  0.0074  0.0676  0.0485  0.1209  0.0006  0.0008  0.0001  0.0019  0.0002 </r>
        <r>  0.0074  0.0345  0.0485  0.1540  0.0006  0.0008  0.0001  0.0019  0.0002 </r>
        <r>  0.0297  0.0057  0.0000  0.0019  0.0007  0.0000  0.0001  0.0001  0.0002 </r>
       </set>
       <set comment="band 7">
        <r>  0.0191  0.0068  0.0150  0.0017  0.0007  0.0005  0.0006  0.0004  0.0015 </r>
        <r>  0.0191  0.0002  0.0150  0.0083  0.0021  0.0002  0.0006  0.0008  0.0001 </r>
        <r>  0.0000  0.0770  0.0964  0.2309  0.0001  0.0000  0.0000  0.0000  0.0004 </r>
       </set>
       <set comment="band 8">
        <r>  0.0023  0.1107  0.0741  0.0359  0.0006  0.0009  0.0005  0.0021  0.0009 </r>
        <r>  0.0023  0.0178  0.0741  0.1288  0.0003  0.0028  0.0005  0.0002  0.0012 </r>
        <r>  0.0000  0.0050  0.0369  0.0151  0.0003  0.0061  0.0000  0.0020  0.0009 </r>
       </set>
       <set comment="band 9">
        <r>  0.0065  0.1375  0.0134  0.0521  0.0006  0.0002  0.0002  0.0013  0.0007 </r>
        <r>  0.0065  0.1254  0.0134  0.0641  0.0001  0.0008  0.0002  0.0006  0.0011 </r>
        <r>  0.0283  0.0583  0.0000  0.0194  0.0010  0.0007  0.0017  0.0022  0.0003 </r>
       </set>
       <set comment="band 10">
        <r>  0.0243  0.0036  0.0848  0.0316  0.0003  0.0016  0.0000  0.0033  0.0019 </r>
        <r>  0.0243  0.0210  0.0848  0.0143  0.0008  0.0031  0.0000  0.0018  0.0014 </r>
        <r>  0.0277  0.1665  0.0000  0.0555  0.0006  0.0006  0.0001  0.0018  0.0002 </r>
       </set>
       <set comment="band 11">
        <r>  0.0206  0.0193  0.0154  0.1161  0.0015  0.0036  0.0009  0.0001  0.0009 </r>
        <r>  0.0206  0.1293  0.0154  0.0060  0.0001  0.0014  0.0009  0.0022  0.0023 </r>
        <r>  0.0000  0.0263  0.0936  0.0788  0.0002  0.0040  0.0000  0.0013  0.0005 </r>
       </set>
       <set comment="band 12">
        <r>  0.0008  0.0481  0.1116  0.0404  0.0021  0.0013  0.0005  0.0042  0.0019 </r>
        <r>  0.0008  0.0128  0.1116  0.0757  0.0013  0.0024  0.0005  0.0032  0.0027 </r>
        <r>  0.0000  0.0051  0.0962  0.0154  0.0022  0.0003  0.0000  0.0001  0.0066 </r>
       </set>
       <set comment="band 13">
        <r>  0.0011  0.0055  0.0071  0.0010  0.0044  0.0110  0.0066  0.0054  0.0164 </r>
        <r>  0.0011  0.0035  0.0071  0.0029  0.0063  0.0124  0.0066  0.0040  0.0146 </r>
        <r>  0.0070  0.0068  0.0000  0.0023  0.0054  0.0024  0.0334  0.0071  0.0018 </r>
       </set>
       <set comment="band 14">
        <r>  0.0002  0.0136  0.0024  0.0095  0.0118  0.0016  0.0305  0.0007  0.0020 </r>
        <r>  0.0002  0.0030  0.0024  0.0202  0.0047  0.0016  0.0305  0.0007  0.0091 </r>
        <r>  0.0000  0.0012  0.0208  0.0036  0.0087  0.0020  0.0000  0.0007  0.0262 </r>
       </set>
       <set comment="band 15">
        <r>  0.0121  0.0004  0.0046  0.0021  0.0206  0.0098  0.0021  0.0310  0.0136 </r>
        <r>  0.0121  0.0020  0.0046  0.0006  0.0210  0.0172  0.0021  0.0235  0.0132 </r>
        <r>  0.0162  0.0021  0.0000  0.0007  0.0112  0.0143  0.0132  0.0429  0.0037 </r>
       </set>
       <set comment="band 16">
        <r>  0.0125  0.0022  0.0083  0.0082  0.0091  0.0080  0.0079  0.0143  0.0043 </r>
        <r>  0.0125  0.0090  0.0083  0.0013  0.0066  0.0040  0.0079  0.0184  0.0068 </r>
        <r>  0.0110  0.0067  0.0000  0.0022  0.0496  0.0018  0.0176  0.0055  0.0165 </r>
       </set>
       <set comment="band 17">
        <r>  0.0008  0.0135  0.0109  0.0019  0.0198  0.0094  0.0065  0.0208  0.0324 </r>
        <r>  0.0008  0.0054  0.0109  0.0099  0.0483  0.0225  0.0065  0.0077  0.0039 </r>
        <r>  0.0000  0.0006  0.0035  0.0018  0.0021  0.0233  0.0000  0.0078  0.0064 </r>
       </set>
       <set comment="band 18">
        <r>  0.0168  0.0188  0.0081  0.0045  0.0010  0.0233  0.0081  0.0103  0.0071 </r>
        <r>  0.0168  0.0158  0.0081  0.0075  0.0065  0.0030  0.0081  0.0305  0.0016 </r>
        <r>  0.0143  0.0385  0.0000  0.0128  0.0255  0.0022  0.0162  0.0067  0.0085 </r>
       </set>
       <set comment="band 19">
        <r>  0.0004  0.0051  0.0013  0.0078  0.0187  0.0033  0.0353  0.0002  0.0153 </r>
        <r>  0.0004  0.0069  0.0013  0.0060  0.0026  0.0005  0.0353  0.0030  0.0313 </r>
        <r>  0.0000  0.0011  0.0547  0.0034  0.0058  0.0315  0.0000  0.0105  0.0173 </r>
       </set>
       <set comment="band 20">
        <r>  0.0048  0.0211  0.0072  0.0084  0.0341  0.0109  0.0054  0.0021  0.0140 </r>
        <r>  0.0048  0.0210  0.0072  0.0084  0.0207  0.0050  0.0054  0.0080  0.0274 </r>
        <r>  0.0045  0.0102  0.0000  0.0034  0.0009  0.0135  0.0342  0.0404  0.0003 </r>
       </set>
       <set comment="band 21">
        <r>  0.0001  0.0014  0.0206  0.0019  0.0188  0.0508  0.0101  0.0062  0.0124 </r>
        <r>  0.0001  0.0020  0.0206  0.0012  0.0150  0.0280  0.0101  0.0290  0.0162 </r>
        <r>  0.0000  0.0069  0.0063  0.0207  0.0118  0.0067  0.0000  0.0022  0.0354 </r>
       </set>
       <set comment="band 22">
        <r>  0.0017  0.0086  0.0010  0.0053  0.0057  0.0055  0.0176  0.0157  0.0089 </r>
        <r>  0.0017  0.0089  0.0010  0.0050  0.0019  0.0099  0.0176  0.0113  0.0126 </r>
        <r>  0.0000  0.0001  0.0065  0.0002  0.0079  0.0512  0.0000  0.0171  0.0237 </r>
       </set>
       <set comment="band 23">
        <r>  0.0003  0.0061  0.0018  0.0027  0.0052  0.0274  0.0031  0.0336  0.0065 </r>
        <r>  0.0003  0.0009  0.0018  0.0079  0.0030  0.0438  0.0031  0.0172  0.0087 </r>
        <r>  0.0058  0.0066  0.0000  0.0022  0.0132  0.0015  0.0176  0.0044  0.0044 </r>
       </set>
       <set comment="band 24">
        <r>  0.0007  0.0045  0.0167  0.0062  0.0077  0.0464  0.0107  0.0332  0.0310 </r>
        <r>  0.0007  0.0016  0.0167  0.0091  0.0123  0.0563  0.0107  0.0233  0.0265 </r>
        <r>  0.0311  0.0196  0.0000  0.0065  0.0418  0.0048  0.0403  0.0143  0.0139 </r>
       </set>
       <set comment="band 25">
        <r>  0.0117  0.0080  0.0025  0.0080  0.0142  0.0025  0.0108  0.0296  0.0149 </r>
        <r>  0.0117  0.0115  0.0025  0.0044  0.0226  0.0206  0.0108  0.0115  0.0065 </r>
        <r>  0.0000  0.0021  0.0403  0.0063  0.0035  0.1004  0.0000  0.0335  0.0104 </r>
       </set>
       <set comment="band 26">
        <r>  0.0028  0.0084  0.0017  0.0078  0.0540  0.0023  0.0393  0.0014  0.0189 </r>
        <r>  0.0028  0.0142  0.0017  0.0020  0.0549  0.0030  0.0392  0.0006  0.0180 </r>
        <r>  0.0006  0.0073  0.0000  0.0024  0.0206  0.0080  0.0667  0.0239  0.0069 </r>
       </set>
       <set comment="band 27">
        <r>  0.0062  0.0017  0.0327  0.0089  0.0069  0.0560  0.0131  0.0211  0.0218 </r>
        <r>  0.0062  0.0058  0.0327  0.0049  0.0076  0.0582  0.0131  0.0190  0.0211 </r>
        <r>  0.0000  0.0046  0.0023  0.0136  0.0216  0.0065  0.0000  0.0021  0.0647 </r>
       </set>
       <set comment="band 28">
        <r>  0.0094  0.0044  0.0030  0.0018  0.0114  0.0088  0.0630  0.0183  0.0171 </r>
        <r>  0.0093  0.0044  0.0031  0.0018  0.0247  0.0103  0.0630  0.0168  0.0038 </r>
        <r>  0.0002  0.0002  0.0000  0.0001  0.0200  0.0193  0.0450  0.0582  0.0065 </r>
       </set>
       <set comment="band 29">
        <r>  0.0027  0.0032  0.0137  0.0199  0.0267  0.0402  0.0256  0.0643  0.0088 </r>
        <r>  0.0028  0.0088  0.0137  0.0141  0.0186  0.0203  0.0269  0.0840  0.0168 </r>
        <r>  0.0000  0.0087  0.0373  0.0254  0.0032  0.0086  0.0000  0.0030  0.0102 </r>
       </set>
       <set comment="band 30">
        <r>  0.0047  0.0011  0.0062  0.0109  0.0127  0.0267  0.0670  0.0687  0.0311 </r>
        <r>  0.0047  0.0087  0.0062  0.0041  0.0360  0.0339  0.0682  0.0606  0.0078 </r>
        <r>  0.0066  0.0052  0.0000  0.0018  0.0887  0.0197  0.0633  0.0577  0.0288 </r>
       </set>
       <set comment="band 31">
        <r>  0.0018  0.0081  0.0086  0.0163  0.0315  0.0132  0.0009  0.0126  0.0430 </r>
        <r>  0.0019  0.0037  0.0091  0.0180  0.0528  0.0056  0.0010  0.0222  0.0264 </r>
        <r>  0.0000  0.0032  0.0081  0.0078  0.0041  0.0285  0.0001  0.0090  0.0154 </r>
       </set>
       <set comment="band 32">
        <r>  0.0031  0.0004  0.0004  0.0153  0.0346  0.0467  0.0034  0.0354  0.0225 </r>
        <r>  0.0015  0.0036  0.0001  0.0113  0.0354  0.0168  0.0147  0.0704  0.0215 </r>
        <r>  0.0132  0.0168  0.0000  0.0083  0.0508  0.0063  0.0578  0.0254  0.0199 </r>
       </set>
      </set>
      <set comment="kpoint 7">
       <set comment="band 1">
        <r>  0.2086  0.0007  0.0000  0.0042  0.0000  0.0001  0.0001  0.0000  0.0001 </r>
        <r>  0.2262  0.0029  0.0000  0.0008  0.0001  0.0000  0.0001  0.0002  0.0000 </r>
        <r>  0.1910  0.0041  0.0000  0.0020  0.0000  0.0000  0.0001  0.0001  0.0000 </r>
       </set>
       <set comment="band 2">
        <r>  0.2242  0.0018  0.0046  0.0017  0.0002  0.0001  0.0000  0.0005  0.0001 </r>
        <r>  0.0384  0.0019  0.0107  0.0047  0.0001  0.0007  0.0000  0.0001  0.0003 </r>
        <r>  0.4131  0.0006  0.0010  0.0011  0.0000  0.0001  0.0000  0.0000  0.0001 </r>
       </set>
       <set comment="band 3">
        <r>  0.2351  0.0016  0.0077  0.0000  0.0002  0.0001  0.0000  0.0007  0.0001 </r>
        <r>  0.4080  0.0002  0.0012  0.0003  0.0000  0.0000  0.0000  0.0001  0.0000 </r>
        <r>  0.0589  0.0005  0.0110  0.0013  0.0002  0.0010  0.0000  0.0006  0.0003 </r>
       </set>
       <set comment="band 4">
        <r>  0.0002  0.0210  0.0545  0.0658  0.0001  0.0000  0.0008  0.0009  0.0002 </r>
        <r>  0.0003  0.0045  0.1016  0.0144  0.0001  0.0007  0.0002  0.0003  0.0001 </r>
        <r>  0.0005  0.0596  0.0281  0.0636  0.0002  0.0002  0.0009  0.0004  0.0000 </r>
       </set>
       <set comment="band 5">
        <r>  0.0073  0.0391  0.0593  0.0218  0.0001  0.0003  0.0001  0.0005  0.0001 </r>
        <r>  0.0045  0.1059  0.0181  0.0096  0.0003  0.0010  0.0007  0.0004  0.0002 </r>
        <r>  0.0021  0.0557  0.1036  0.0149  0.0000  0.0007  0.0002  0.0001  0.0003 </r>
       </set>
       <set comment="band 6">
        <r>  0.0036  0.0802  0.0463  0.0849  0.0003  0.0006  0.0001  0.0015  0.0004 </r>
        <r>  0.0070  0.0437  0.0207  0.1229  0.0002  0.0004  0.0003  0.0021  0.0003 </r>
        <r>  0.0272  0.0206  0.0051  0.0271  0.0002  0.0000  0.0001  0.0002  0.0003 </r>
       </set>
       <set comment="band 7">
        <r>  0.0224  0.0003  0.0294  0.0494  0.0003  0.0012  0.0004  0.0024  0.0010 </r>
        <r>  0.0018  0.0259  0.0077  0.1498  0.0011  0.0002  0.0002  0.0015  0.0006 </r>
        <r>  0.0141  0.0573  0.0847  0.0145  0.0003  0.0014  0.0004  0.0031  0.0001 </r>
       </set>
       <set comment="band 8">
        <r>  0.0143  0.0046  0.0227  0.0472  0.0007  0.0012  0.0006  0.0021  0.0002 </r>
        <r>  0.0176  0.0357  0.0667  0.0101  0.0011  0.0017  0.0001  0.0001  0.0001 </r>
        <r>  0.0017  0.0346  0.0279  0.2084  0.0010  0.0001  0.0003  0.0010  0.0005 </r>
       </set>
       <set comment="band 9">
        <r>  0.0043  0.2119  0.0461  0.0021  0.0008  0.0010  0.0002  0.0002  0.0003 </r>
        <r>  0.0115  0.0861  0.0357  0.0122  0.0005  0.0026  0.0005  0.0007  0.0013 </r>
        <r>  0.0153  0.0485  0.0166  0.0012  0.0000  0.0062  0.0010  0.0002  0.0007 </r>
       </set>
       <set comment="band 10">
        <r>  0.0098  0.0328  0.0665  0.0127  0.0027  0.0054  0.0005  0.0007  0.0022 </r>
        <r>  0.0298  0.1140  0.0392  0.0120  0.0020  0.0038  0.0009  0.0002  0.0023 </r>
        <r>  0.0079  0.1257  0.0717  0.0097  0.0004  0.0037  0.0002  0.0002  0.0001 </r>
       </set>
       <set comment="band 11">
        <r>  0.0128  0.0362  0.0428  0.1093  0.0004  0.0006  0.0014  0.0011  0.0009 </r>
        <r>  0.0047  0.0154  0.1708  0.0293  0.0014  0.0034  0.0012  0.0045  0.0009 </r>
        <r>  0.0077  0.0384  0.0175  0.0450  0.0037  0.0003  0.0001  0.0011  0.0046 </r>
       </set>
       <set comment="band 12">
        <r>  0.0116  0.0318  0.1079  0.0781  0.0014  0.0004  0.0001  0.0047  0.0025 </r>
        <r>  0.0081  0.0280  0.0145  0.1006  0.0010  0.0010  0.0001  0.0026  0.0028 </r>
        <r>  0.0067  0.0235  0.1034  0.0850  0.0021  0.0011  0.0002  0.0028  0.0009 </r>
       </set>
       <set comment="band 13">
        <r>  0.0004  0.0137  0.0027  0.0078  0.0173  0.0095  0.0094  0.0028  0.0063 </r>
        <r>  0.0004  0.0132  0.0030  0.0061  0.0120  0.0046  0.0133  0.0051  0.0043 </r>
        <r>  0.0024  0.0069  0.0077  0.0092  0.0131  0.0007  0.0131  0.0094  0.0051 </r>
       </set>
       <set comment="band 14">
        <r>  0.0017  0.0031  0.0002  0.0084  0.0036  0.0045  0.0199  0.0025  0.0158 </r>
        <r>  0.0005  0.0002  0.0009  0.0249  0.0003  0.0105  0.0161  0.0006  0.0178 </r>
        <r>  0.0054  0.0086  0.0078  0.0147  0.0026  0.0033  0.0110  0.0040  0.0237 </r>
       </set>
       <set comment="band 15">
        <r>  0.0125  0.0001  0.0062  0.0142  0.0119  0.0104  0.0063  0.0355  0.0072 </r>
        <r>  0.0141  0.0011  0.0083  0.0113  0.0175  0.0159  0.0003  0.0250  0.0160 </r>
        <r>  0.0182  0.0029  0.0025  0.0088  0.0188  0.0168  0.0112  0.0297  0.0052 </r>
       </set>
       <set comment="band 16">
        <r>  0.0048  0.0155  0.0017  0.0124  0.0203  0.0168  0.0054  0.0025  0.0168 </r>
        <r>  0.0027  0.0001  0.0069  0.0033  0.0121  0.0108  0.0072  0.0235  0.0095 </r>
        <r>  0.0012  0.0171  0.0032  0.0052  0.0300  0.0024  0.0150  0.0094  0.0241 </r>
       </set>
       <set comment="band 17">
        <r>  0.0077  0.0104  0.0225  0.0019  0.0185  0.0111  0.0063  0.0129  0.0015 </r>
        <r>  0.0060  0.0513  0.0103  0.0122  0.0307  0.0070  0.0193  0.0024  0.0106 </r>
        <r>  0.0026  0.0137  0.0172  0.0124  0.0023  0.0020  0.0284  0.0041  0.0052 </r>
       </set>
       <set comment="band 18">
        <r>  0.0005  0.0124  0.0068  0.0059  0.0031  0.0054  0.0187  0.0287  0.0462 </r>
        <r>  0.0008  0.0012  0.0023  0.0121  0.0125  0.0029  0.0288  0.0146  0.0130 </r>
        <r>  0.0002  0.0186  0.0281  0.0020  0.0065  0.0511  0.0016  0.0021  0.0153 </r>
       </set>
       <set comment="band 19">
        <r>  0.0011  0.0173  0.0033  0.0142  0.0152  0.0018  0.0445  0.0082  0.0082 </r>
        <r>  0.0021  0.0008  0.0132  0.0032  0.0069  0.0097  0.0370  0.0188  0.0137 </r>
        <r>  0.0004  0.0144  0.0122  0.0066  0.0335  0.0013  0.0143  0.0183  0.0077 </r>
       </set>
       <set comment="band 20">
        <r>  0.0007  0.0253  0.0034  0.0088  0.0109  0.0402  0.0198  0.0018  0.0087 </r>
        <r>  0.0004  0.0364  0.0088  0.0038  0.0055  0.0025  0.0112  0.0068  0.0195 </r>
        <r>  0.0005  0.0259  0.0010  0.0023  0.0041  0.0187  0.0383  0.0336  0.0008 </r>
       </set>
       <set comment="band 21">
        <r>  0.0070  0.0049  0.0310  0.0077  0.0060  0.0241  0.0217  0.0104  0.0186 </r>
        <r>  0.0059  0.0031  0.0098  0.0003  0.0394  0.0211  0.0074  0.0432  0.0321 </r>
        <r>  0.0118  0.0018  0.0329  0.0245  0.0075  0.0088  0.0025  0.0008  0.0318 </r>
       </set>
       <set comment="band 22">
        <r>  0.0055  0.0115  0.0072  0.0088  0.0193  0.0380  0.0068  0.0363  0.0204 </r>
        <r>  0.0082  0.0020  0.0077  0.0109  0.0275  0.0269  0.0189  0.0139  0.0043 </r>
        <r>  0.0179  0.0110  0.0049  0.0028  0.0388  0.0066  0.0230  0.0380  0.0127 </r>
       </set>
       <set comment="band 23">
        <r>  0.0108  0.0099  0.0057  0.0046  0.0188  0.0000  0.0037  0.0097  0.0214 </r>
        <r>  0.0079  0.0135  0.0005  0.0046  0.0116  0.0748  0.0008  0.0251  0.0110 </r>
        <r>  0.0077  0.0021  0.0066  0.0053  0.0009  0.1188  0.0029  0.0496  0.0201 </r>
       </set>
       <set comment="band 24">
        <r>  0.0059  0.0105  0.0041  0.0032  0.0446  0.0413  0.0127  0.0472  0.0025 </r>
        <r>  0.0057  0.0010  0.0139  0.0231  0.0174  0.0131  0.0040  0.0134  0.0310 </r>
        <r>  0.0206  0.0014  0.0032  0.0060  0.0270  0.0035  0.0492  0.0086  0.0005 </r>
       </set>
       <set comment="band 25">
        <r>  0.0168  0.0012  0.0124  0.0066  0.0331  0.0313  0.0005  0.0220  0.0188 </r>
        <r>  0.0070  0.0034  0.0142  0.0015  0.0049  0.0491  0.0061  0.0130  0.0455 </r>
        <r>  0.0001  0.0060  0.0026  0.0061  0.0096  0.0222  0.0075  0.0042  0.0777 </r>
       </set>
       <set comment="band 26">
        <r>  0.0031  0.0061  0.0017  0.0006  0.0120  0.0251  0.0515  0.0038  0.0439 </r>
        <r>  0.0018  0.0048  0.0114  0.0025  0.0189  0.0125  0.0185  0.0051  0.0237 </r>
        <r>  0.0022  0.0002  0.0013  0.0020  0.0315  0.0149  0.0078  0.0192  0.0320 </r>
       </set>
       <set comment="band 27">
        <r>  0.0038  0.0004  0.0149  0.0001  0.0013  0.0325  0.0334  0.0024  0.0237 </r>
        <r>  0.0046  0.0026  0.0037  0.0001  0.0286  0.0014  0.0108  0.0053  0.0003 </r>
        <r>  0.0001  0.0010  0.0030  0.0067  0.0089  0.0026  0.0241  0.0059  0.0009 </r>
       </set>
       <set comment="band 28">
        <r>  0.0015  0.0022  0.0011  0.0112  0.0335  0.0017  0.0199  0.0048  0.0228 </r>
        <r>  0.0023  0.0007  0.0012  0.0019  0.0228  0.0150  0.0843  0.0022  0.0111 </r>
        <r>  0.0003  0.0003  0.0021  0.0066  0.0186  0.0149  0.0394  0.0035  0.0152 </r>
       </set>
       <set comment="band 29">
        <r>  0.0090  0.0012  0.0004  0.0136  0.0115  0.0162  0.0147  0.0111  0.0173 </r>
        <r>  0.0047  0.0056  0.0021  0.0057  0.0155  0.0022  0.0147  0.0118  0.0184 </r>
        <r>  0.0071  0.0063  0.0025  0.0024  0.0106  0.0090  0.0045  0.0101  0.0077 </r>
       </set>
       <set comment="band 30">
        <r>  0.0041  0.0048  0.0084  0.0027  0.0077  0.0072  0.0326  0.0062  0.0191 </r>
        <r>  0.0037  0.0126  0.0066  0.0060  0.0248  0.0186  0.0023  0.0019  0.0163 </r>
        <r>  0.0046  0.0038  0.0024  0.0013  0.0035  0.0044  0.0217  0.0228  0.0054 </r>
       </set>
       <set comment="band 31">
        <r>  0.0018  0.0097  0.0070  0.0015  0.0505  0.0055  0.0249  0.0243  0.0057 </r>
        <r>  0.0044  0.0048  0.0198  0.0048  0.0157  0.0009  0.0632  0.0140  0.0026 </r>
        <r>  0.0043  0.0083  0.0098  0.0020  0.0491  0.0001  0.0252  0.0090  0.0464 </r>
       </set>
       <set comment="band 32">
        <r>  0.0054  0.0019  0.0051  0.0119  0.0085  0.0024  0.0228  0.0686  0.0009 </r>
        <r>  0.0105  0.0024  0.0065  0.0145  0.0063  0.0131  0.0032  0.1256  0.0002 </r>
        <r>  0.0073  0.0002  0.0148  0.0295  0.0174  0.0062  0.0257  0.0472  0.0063 </r>
       </set>
      </set>
      <set comment="kpoint 8">
       <set comment="band 1">
        <r>  0.1979  0.0005  0.0001  0.0070  0.0000  0.0002  0.0001  0.0000  0.0001 </r>
        <r>  0.2602  0.0030  0.0000  0.0007  0.0002  0.0001  0.0001  0.0003  0.0000 </r>
        <r>  0.1848  0.0051  0.0001  0.0031  0.0000  0.0000  0.0001  0.0001  0.0000 </r>
       </set>
       <set comment="band 2">
        <r>  0.2935  0.0017  0.0012  0.0019  0.0002  0.0000  0.0000  0.0004  0.0000 </r>
        <r>  0.0086  0.0024  0.0069  0.0076  0.0000  0.0005  0.0000  0.0001  0.0002 </r>
        <r>  0.3535  0.0002  0.0008  0.0024  0.0001  0.0002  0.0000  0.0001  0.0001 </r>
       </set>
       <set comment="band 3">
        <r>  0.1768  0.0023  0.0060  0.0001  0.0003  0.0001  0.0000  0.0011  0.0001 </r>
        <r>  0.4106  0.0005  0.0001  0.0002  0.0000  0.0000  0.0000  0.0001  0.0000 </r>
        <r>  0.1272  0.0008  0.0062  0.0015  0.0002  0.0008  0.0000  0.0007  0.0002 </r>
       </set>
       <set comment="band 4">
        <r>  0.0007  0.0146  0.0450  0.0754  0.0001  0.0001  0.0005  0.0008  0.0002 </r>
        <r>  0.0000  0.0012  0.1402  0.0015  0.0001  0.0019  0.0000  0.0004  0.0002 </r>
        <r>  0.0002  0.0486  0.0535  0.0430  0.0001  0.0008  0.0004  0.0002  0.0001 </r>
       </set>
       <set comment="band 5">
        <r>  0.0065  0.0428  0.0935  0.0219  0.0001  0.0003  0.0000  0.0018  0.0000 </r>
        <r>  0.0021  0.0762  0.0065  0.0076  0.0005  0.0006  0.0005  0.0018  0.0001 </r>
        <r>  0.0035  0.0298  0.0881  0.0651  0.0001  0.0008  0.0000  0.0006  0.0002 </r>
       </set>
       <set comment="band 6">
        <r>  0.0032  0.0705  0.0320  0.0653  0.0000  0.0006  0.0001  0.0007  0.0002 </r>
        <r>  0.0040  0.0535  0.0011  0.1047  0.0001  0.0002  0.0005  0.0014  0.0001 </r>
        <r>  0.0242  0.0608  0.0099  0.0188  0.0001  0.0001  0.0005  0.0003  0.0001 </r>
       </set>
       <set comment="band 7">
        <r>  0.0238  0.0025  0.0318  0.0503  0.0001  0.0007  0.0007  0.0015  0.0004 </r>
        <r>  0.0023  0.0505  0.0120  0.1357  0.0002  0.0002  0.0003  0.0008  0.0004 </r>
        <r>  0.0116  0.0421  0.0535  0.0120  0.0002  0.0005  0.0004  0.0028  0.0000 </r>
       </set>
       <set comment="band 8">
        <r>  0.0147  0.0056  0.0192  0.0338  0.0003  0.0025  0.0009  0.0029  0.0001 </r>
        <r>  0.0199  0.0590  0.0382  0.0353  0.0020  0.0015  0.0002  0.0003  0.0001 </r>
        <r>  0.0040  0.0448  0.0468  0.1662  0.0009  0.0004  0.0004  0.0005  0.0003 </r>
       </set>
       <set comment="band 9">
        <r>  0.0071  0.2073  0.0434  0.0014  0.0013  0.0008  0.0001  0.0000  0.0003 </r>
        <r>  0.0092  0.0604  0.0608  0.0064  0.0004  0.0026  0.0003  0.0010  0.0011 </r>
        <r>  0.0160  0.0510  0.0158  0.0049  0.0001  0.0058  0.0008  0.0002  0.0006 </r>
       </set>
       <set comment="band 10">
        <r>  0.0020  0.0200  0.0828  0.0389  0.0031  0.0052  0.0012  0.0019  0.0018 </r>
        <r>  0.0335  0.1127  0.0032  0.0253  0.0049  0.0011  0.0025  0.0009  0.0020 </r>
        <r>  0.0005  0.0589  0.0860  0.0200  0.0022  0.0045  0.0011  0.0013  0.0003 </r>
       </set>
       <set comment="band 11">
        <r>  0.0146  0.0727  0.0302  0.0570  0.0027  0.0002  0.0005  0.0007  0.0009 </r>
        <r>  0.0003  0.0012  0.1789  0.0260  0.0007  0.0088  0.0002  0.0040  0.0010 </r>
        <r>  0.0141  0.0833  0.0199  0.0339  0.0046  0.0003  0.0000  0.0008  0.0029 </r>
       </set>
       <set comment="band 12">
        <r>  0.0038  0.0178  0.0769  0.1228  0.0034  0.0013  0.0017  0.0013  0.0032 </r>
        <r>  0.0011  0.0313  0.0446  0.1040  0.0015  0.0006  0.0009  0.0002  0.0035 </r>
        <r>  0.0027  0.0285  0.1103  0.0675  0.0020  0.0007  0.0021  0.0022  0.0007 </r>
       </set>
       <set comment="band 13">
        <r>  0.0026  0.0158  0.0346  0.0012  0.0149  0.0100  0.0081  0.0019  0.0029 </r>
        <r>  0.0020  0.0244  0.0045  0.0181  0.0106  0.0022  0.0112  0.0061  0.0023 </r>
        <r>  0.0018  0.0272  0.0006  0.0242  0.0128  0.0006  0.0084  0.0106  0.0057 </r>
       </set>
       <set comment="band 14">
        <r>  0.0026  0.0035  0.0028  0.0278  0.0046  0.0033  0.0121  0.0019  0.0241 </r>
        <r>  0.0007  0.0011  0.0003  0.0193  0.0010  0.0105  0.0161  0.0035  0.0158 </r>
        <r>  0.0022  0.0118  0.0023  0.0427  0.0042  0.0035  0.0065  0.0058  0.0269 </r>
       </set>
       <set comment="band 15">
        <r>  0.0020  0.0143  0.0003  0.0341  0.0230  0.0068  0.0157  0.0035  0.0007 </r>
        <r>  0.0049  0.0135  0.0118  0.0305  0.0272  0.0051  0.0014  0.0030  0.0237 </r>
        <r>  0.0006  0.0283  0.0102  0.0225  0.0207  0.0052  0.0098  0.0030  0.0008 </r>
       </set>
       <set comment="band 16">
        <r>  0.0033  0.0152  0.0215  0.0079  0.0006  0.0247  0.0081  0.0475  0.0043 </r>
        <r>  0.0044  0.0088  0.0153  0.0111  0.0079  0.0331  0.0032  0.0467  0.0025 </r>
        <r>  0.0207  0.0189  0.0019  0.0037  0.0157  0.0171  0.0152  0.0096  0.0062 </r>
       </set>
       <set comment="band 17">
        <r>  0.0012  0.0223  0.0043  0.0097  0.0288  0.0165  0.0058  0.0069  0.0281 </r>
        <r>  0.0084  0.0350  0.0016  0.0034  0.0114  0.0054  0.0015  0.0110  0.0006 </r>
        <r>  0.0017  0.0068  0.0204  0.0042  0.0311  0.0245  0.0228  0.0115  0.0156 </r>
       </set>
       <set comment="band 18">
        <r>  0.0301  0.0025  0.0117  0.0024  0.0022  0.0020  0.0014  0.0326  0.0135 </r>
        <r>  0.0012  0.0086  0.0052  0.0033  0.0035  0.0138  0.0643  0.0214  0.0299 </r>
        <r>  0.0042  0.0004  0.0237  0.0038  0.0074  0.0176  0.0395  0.0232  0.0185 </r>
       </set>
       <set comment="band 19">
        <r>  0.0024  0.0007  0.0003  0.0092  0.0043  0.0096  0.0958  0.0106  0.0075 </r>
        <r>  0.0143  0.0146  0.0126  0.0109  0.0223  0.0006  0.0029  0.0082  0.0053 </r>
        <r>  0.0022  0.0014  0.0003  0.0095  0.0072  0.0233  0.0089  0.0851  0.0057 </r>
       </set>
       <set comment="band 20">
        <r>  0.0038  0.0164  0.0025  0.0005  0.0030  0.0165  0.0072  0.0307  0.0424 </r>
        <r>  0.0019  0.0041  0.0000  0.0031  0.0072  0.0257  0.0502  0.0338  0.0082 </r>
        <r>  0.0179  0.0083  0.0152  0.0124  0.0060  0.0332  0.0141  0.0066  0.0042 </r>
       </set>
       <set comment="band 21">
        <r>  0.0025  0.0091  0.0037  0.0078  0.0067  0.0542  0.0046  0.0093  0.0225 </r>
        <r>  0.0034  0.0065  0.0009  0.0065  0.0088  0.0441  0.0112  0.0087  0.0121 </r>
        <r>  0.0119  0.0159  0.0039  0.0019  0.0127  0.0111  0.0458  0.0098  0.0499 </r>
       </set>
       <set comment="band 22">
        <r>  0.0066  0.0134  0.0262  0.0032  0.0083  0.0059  0.0123  0.0080  0.0472 </r>
        <r>  0.0065  0.0045  0.0142  0.0102  0.0383  0.0045  0.0025  0.0012  0.0668 </r>
        <r>  0.0037  0.0015  0.0107  0.0060  0.0179  0.0406  0.0013  0.0031  0.0380 </r>
       </set>
       <set comment="band 23">
        <r>  0.0035  0.0134  0.0182  0.0026  0.0118  0.0160  0.0414  0.0274  0.0083 </r>
        <r>  0.0043  0.0001  0.0018  0.0109  0.0230  0.0030  0.0106  0.0042  0.0638 </r>
        <r>  0.0009  0.0042  0.0093  0.0086  0.0244  0.0120  0.0262  0.0089  0.0155 </r>
       </set>
       <set comment="band 24">
        <r>  0.0072  0.0073  0.0119  0.0100  0.0557  0.0257  0.0023  0.0115  0.0348 </r>
        <r>  0.0031  0.0055  0.0015  0.0003  0.0309  0.0066  0.0473  0.0052  0.0074 </r>
        <r>  0.0097  0.0076  0.0007  0.0014  0.0104  0.0582  0.0405  0.0018  0.0088 </r>
       </set>
       <set comment="band 25">
        <r>  0.0157  0.0073  0.0018  0.0003  0.0220  0.0688  0.0429  0.0052  0.0116 </r>
        <r>  0.0035  0.0080  0.0002  0.0014  0.0242  0.0592  0.0048  0.0361  0.0052 </r>
        <r>  0.0019  0.0186  0.0014  0.0021  0.0020  0.0024  0.0049  0.0104  0.0105 </r>
       </set>
       <set comment="band 26">
        <r>  0.0053  0.0004  0.0002  0.0012  0.0057  0.0007  0.0149  0.0199  0.0249 </r>
        <r>  0.0066  0.0162  0.0070  0.0031  0.0207  0.0118  0.0111  0.0001  0.0204 </r>
        <r>  0.0056  0.0017  0.0125  0.0013  0.0478  0.0077  0.0386  0.0111  0.0272 </r>
       </set>
       <set comment="band 27">
        <r>  0.0004  0.0024  0.0048  0.0039  0.0475  0.0013  0.0252  0.0201  0.0260 </r>
        <r>  0.0037  0.0041  0.0088  0.0137  0.0030  0.0211  0.0262  0.0414  0.0398 </r>
        <r>  0.0028  0.0058  0.0085  0.0085  0.0038  0.0055  0.0222  0.0248  0.0944 </r>
       </set>
       <set comment="band 28">
        <r>  0.0058  0.0163  0.0181  0.0100  0.0134  0.0112  0.0390  0.0182  0.0139 </r>
        <r>  0.0039  0.0031  0.0345  0.0015  0.0178  0.0071  0.0072  0.0424  0.0027 </r>
        <r>  0.0114  0.0026  0.0051  0.0375  0.0066  0.0151  0.0007  0.0530  0.0095 </r>
       </set>
       <set comment="band 29">
        <r>  0.0059  0.0012  0.0021  0.0233  0.0234  0.0135  0.0009  0.0401  0.0069 </r>
        <r>  0.0005  0.0059  0.0180  0.0317  0.0064  0.0115  0.0421  0.0470  0.0162 </r>
        <r>  0.0075  0.0052  0.0027  0.0013  0.0074  0.0201  0.0104  0.0233  0.0080 </r>
       </set>
       <set comment="band 30">
        <r>  0.0016  0.0011  0.0039  0.0062  0.0310  0.0112  0.0110  0.0169  0.0197 </r>
        <r>  0.0051  0.0033  0.0005  0.0048  0.0366  0.0094  0.0277  0.0003  0.0104 </r>
        <r>  0.0067  0.0009  0.0125  0.0084  0.0232  0.0061  0.0194  0.0016  0.0030 </r>
       </set>
       <set comment="band 31">
        <r>  0.0096  0.0058  0.0088  0.0041  0.0030  0.0135  0.0063  0.0043  0.0007 </r>
        <r>  0.0146  0.0007  0.0060  0.0076  0.0046  0.0280  0.0213  0.0132  0.0101 </r>
        <r>  0.0006  0.0055  0.0033  0.0006  0.0393  0.0025  0.0245  0.0089  0.0117 </r>
       </set>
       <set comment="band 32">
        <r>  0.0064  0.0029  0.0002  0.0008  0.0306  0.0080  0.0007  0.0100  0.0153 </r>
        <r>  0.0071  0.0038  0.0043  0.0002  0.0108  0.0224  0.0015  0.0023  0.0173 </r>
        <r>  0.0055  0.0019  0.0011  0.0048  0.0340  0.0052  0.0084  0.0003  0.0247 </r>
       </set>
      </set>
      <set comment="kpoint 9">
       <set comment="band 1">
        <r>  0.2277  0.0006  0.0000  0.0050  0.0000  0.0002  0.0001  0.0000  0.0001 </r>
        <r>  0.2277  0.0049  0.0000  0.0007  0.0001  0.0000  0.0001  0.0002  0.0000 </r>
        <r>  0.1856  0.0061  0.0000  0.0020  0.0000  0.0000  0.0001  0.0001  0.0000 </r>
       </set>
       <set comment="band 2">
        <r>  0.0962  0.0054  0.0049  0.0014  0.0002  0.0001  0.0000  0.0007  0.0001 </r>
        <r>  0.0962  0.0026  0.0049  0.0042  0.0000  0.0008  0.0000  0.0001  0.0003 </r>
        <r>  0.4782  0.0010  0.0000  0.0003  0.0000  0.0000  0.0000  0.0000  0.0000 </r>
       </set>
       <set comment="band 3">
        <r>  0.3481  0.0015  0.0025  0.0006  0.0001  0.0000  0.0000  0.0003  0.0000 </r>
        <r>  0.3481  0.0004  0.0025  0.0017  0.0000  0.0002  0.0000  0.0001  0.0001 </r>
        <r>  0.0000  0.0011  0.0070  0.0032  0.0002  0.0013  0.0000  0.0004  0.0005 </r>
       </set>
       <set comment="band 4">
        <r>  0.0005  0.0043  0.1139  0.0184  0.0002  0.0002  0.0003  0.0019  0.0001 </r>
        <r>  0.0005  0.0212  0.1139  0.0016  0.0003  0.0012  0.0003  0.0008  0.0000 </r>
        <r>  0.0001  0.1114  0.0000  0.0371  0.0004  0.0001  0.0006  0.0004  0.0001 </r>
       </set>
       <set comment="band 5">
        <r>  0.0024  0.0387  0.0223  0.0633  0.0000  0.0008  0.0004  0.0007  0.0003 </r>
        <r>  0.0024  0.0906  0.0223  0.0113  0.0002  0.0014  0.0004  0.0001  0.0001 </r>
        <r>  0.0000  0.0100  0.1377  0.0300  0.0000  0.0017  0.0000  0.0006  0.0001 </r>
       </set>
       <set comment="band 6">
        <r>  0.0045  0.0991  0.0232  0.0831  0.0003  0.0017  0.0002  0.0015  0.0001 </r>
        <r>  0.0045  0.0396  0.0232  0.1426  0.0002  0.0011  0.0002  0.0020  0.0002 </r>
        <r>  0.0456  0.0083  0.0000  0.0028  0.0001  0.0001  0.0006  0.0004  0.0000 </r>
       </set>
       <set comment="band 7">
        <r>  0.0143  0.0636  0.0101  0.0237  0.0002  0.0016  0.0005  0.0005  0.0014 </r>
        <r>  0.0143  0.0020  0.0101  0.0853  0.0006  0.0005  0.0005  0.0016  0.0010 </r>
        <r>  0.0000  0.0243  0.1159  0.0730  0.0001  0.0024  0.0000  0.0008  0.0002 </r>
       </set>
       <set comment="band 8">
        <r>  0.0252  0.0750  0.0026  0.0830  0.0001  0.0004  0.0004  0.0007  0.0002 </r>
        <r>  0.0252  0.1169  0.0026  0.0411  0.0001  0.0002  0.0004  0.0009  0.0001 </r>
        <r>  0.0176  0.0648  0.0000  0.0216  0.0002  0.0011  0.0012  0.0033  0.0001 </r>
       </set>
       <set comment="band 9">
        <r>  0.0055  0.0199  0.0908  0.0034  0.0008  0.0009  0.0001  0.0021  0.0001 </r>
        <r>  0.0055  0.0009  0.0908  0.0224  0.0002  0.0023  0.0001  0.0007  0.0006 </r>
        <r>  0.0000  0.0478  0.0165  0.1435  0.0004  0.0017  0.0000  0.0006  0.0013 </r>
       </set>
       <set comment="band 10">
        <r>  0.0073  0.0014  0.0668  0.1296  0.0005  0.0025  0.0029  0.0011  0.0014 </r>
        <r>  0.0073  0.0900  0.0668  0.0410  0.0019  0.0000  0.0029  0.0036  0.0000 </r>
        <r>  0.0000  0.0203  0.0638  0.0610  0.0017  0.0016  0.0000  0.0005  0.0050 </r>
       </set>
       <set comment="band 11">
        <r>  0.0101  0.0344  0.1085  0.0483  0.0023  0.0003  0.0005  0.0017  0.0046 </r>
        <r>  0.0101  0.0301  0.1085  0.0527  0.0013  0.0008  0.0005  0.0013  0.0056 </r>
        <r>  0.0093  0.1315  0.0000  0.0438  0.0003  0.0006  0.0020  0.0019  0.0001 </r>
       </set>
       <set comment="band 12">
        <r>  0.0052  0.1206  0.0522  0.0138  0.0022  0.0014  0.0001  0.0038  0.0011 </r>
        <r>  0.0052  0.0647  0.0522  0.0697  0.0002  0.0042  0.0001  0.0010  0.0032 </r>
        <r>  0.0000  0.0208  0.1385  0.0624  0.0010  0.0023  0.0000  0.0008  0.0030 </r>
       </set>
       <set comment="band 13">
        <r>  0.0005  0.0078  0.0056  0.0041  0.0042  0.0124  0.0022  0.0035  0.0204 </r>
        <r>  0.0005  0.0072  0.0056  0.0047  0.0093  0.0113  0.0022  0.0047  0.0153 </r>
        <r>  0.0057  0.0419  0.0000  0.0140  0.0087  0.0040  0.0178  0.0120  0.0029 </r>
       </set>
       <set comment="band 14">
        <r>  0.0010  0.0115  0.0035  0.0271  0.0123  0.0011  0.0236  0.0004  0.0045 </r>
        <r>  0.0010  0.0088  0.0035  0.0299  0.0081  0.0009  0.0236  0.0006  0.0087 </r>
        <r>  0.0000  0.0036  0.0216  0.0108  0.0096  0.0016  0.0000  0.0005  0.0287 </r>
       </set>
       <set comment="band 15">
        <r>  0.0145  0.0088  0.0015  0.0085  0.0293  0.0037  0.0039  0.0259  0.0035 </r>
        <r>  0.0145  0.0131  0.0015  0.0041  0.0171  0.0155  0.0039  0.0141  0.0157 </r>
        <r>  0.0120  0.0197  0.0000  0.0066  0.0311  0.0083  0.0052  0.0248  0.0104 </r>
       </set>
       <set comment="band 16">
        <r>  0.0013  0.0156  0.0099  0.0103  0.0075  0.0195  0.0024  0.0395  0.0065 </r>
        <r>  0.0013  0.0225  0.0099  0.0033  0.0088  0.0122  0.0024  0.0469  0.0052 </r>
        <r>  0.0222  0.0271  0.0000  0.0090  0.0033  0.0022  0.0168  0.0065  0.0011 </r>
       </set>
       <set comment="band 17">
        <r>  0.0146  0.0228  0.0006  0.0192  0.0082  0.0163  0.0031  0.0260  0.0275 </r>
        <r>  0.0146  0.0357  0.0006  0.0062  0.0153  0.0184  0.0031  0.0239  0.0204 </r>
        <r>  0.0000  0.0002  0.0556  0.0005  0.0035  0.0217  0.0000  0.0072  0.0105 </r>
       </set>
       <set comment="band 18">
        <r>  0.0115  0.0039  0.0073  0.0002  0.0172  0.0234  0.0174  0.0062  0.0075 </r>
        <r>  0.0115  0.0009  0.0073  0.0032  0.0069  0.0111  0.0174  0.0185  0.0178 </r>
        <r>  0.0034  0.0145  0.0000  0.0048  0.0329  0.0130  0.0564  0.0389  0.0110 </r>
       </set>
       <set comment="band 19">
        <r>  0.0037  0.0127  0.0035  0.0012  0.0052  0.0036  0.0674  0.0127  0.0057 </r>
        <r>  0.0037  0.0010  0.0035  0.0128  0.0081  0.0118  0.0674  0.0045  0.0028 </r>
        <r>  0.0000  0.0048  0.0090  0.0144  0.0014  0.0920  0.0000  0.0307  0.0042 </r>
       </set>
       <set comment="band 20">
        <r>  0.0013  0.0121  0.0086  0.0039  0.0015  0.0081  0.0328  0.0004  0.0117 </r>
        <r>  0.0013  0.0118  0.0086  0.0043  0.0123  0.0008  0.0328  0.0076  0.0009 </r>
        <r>  0.0005  0.0066  0.0000  0.0022  0.0186  0.0106  0.0371  0.0317  0.0062 </r>
       </set>
       <set comment="band 21">
        <r>  0.0004  0.0044  0.0009  0.0085  0.0183  0.0655  0.0059  0.0204  0.0185 </r>
        <r>  0.0004  0.0110  0.0009  0.0019  0.0339  0.0633  0.0059  0.0226  0.0029 </r>
        <r>  0.0374  0.0073  0.0000  0.0024  0.0555  0.0008  0.0355  0.0025  0.0185 </r>
       </set>
       <set comment="band 22">
        <r>  0.0115  0.0058  0.0150  0.0007  0.0367  0.0008  0.0205  0.0004  0.0481 </r>
        <r>  0.0115  0.0030  0.0150  0.0035  0.0796  0.0007  0.0205  0.0005  0.0053 </r>
        <r>  0.0000  0.0010  0.0159  0.0029  0.0119  0.0197  0.0000  0.0066  0.0357 </r>
       </set>
       <set comment="band 23">
        <r>  0.0064  0.0003  0.0261  0.0015  0.0604  0.0210  0.0020  0.0136  0.0143 </r>
        <r>  0.0064  0.0006  0.0261  0.0012  0.0007  0.0301  0.0020  0.0045  0.0740 </r>
        <r>  0.0000  0.0012  0.0038  0.0037  0.0158  0.0249  0.0000  0.0083  0.0473 </r>
       </set>
       <set comment="band 24">
        <r>  0.0008  0.0280  0.0073  0.0032  0.0108  0.0050  0.0178  0.0358  0.0178 </r>
        <r>  0.0008  0.0152  0.0073  0.0160  0.0050  0.0180  0.0178  0.0227  0.0236 </r>
        <r>  0.0032  0.0152  0.0000  0.0051  0.0005  0.0096  0.0938  0.0289  0.0002 </r>
       </set>
       <set comment="band 25">
        <r>  0.0002  0.0086  0.0147  0.0045  0.0259  0.0989  0.0260  0.0054  0.0075 </r>
        <r>  0.0002  0.0001  0.0147  0.0129  0.0203  0.0443  0.0260  0.0600  0.0131 </r>
        <r>  0.0000  0.0070  0.0156  0.0209  0.0017  0.0461  0.0000  0.0154  0.0050 </r>
       </set>
       <set comment="band 26">
        <r>  0.0014  0.0021  0.0064  0.0109  0.0016  0.0063  0.0240  0.0379  0.0166 </r>
        <r>  0.0014  0.0110  0.0065  0.0020  0.0167  0.0379  0.0239  0.0064  0.0014 </r>
        <r>  0.0000  0.0006  0.0135  0.0018  0.0084  0.0219  0.0000  0.0073  0.0251 </r>
       </set>
       <set comment="band 27">
        <r>  0.0112  0.0109  0.0010  0.0003  0.0609  0.0028  0.0267  0.0007  0.0116 </r>
        <r>  0.0112  0.0023  0.0010  0.0089  0.0442  0.0021  0.0268  0.0013  0.0283 </r>
        <r>  0.0060  0.0268  0.0000  0.0089  0.0168  0.0035  0.0518  0.0106  0.0056 </r>
       </set>
       <set comment="band 28">
        <r>  0.0024  0.0062  0.0031  0.0094  0.0154  0.0004  0.0496  0.0001  0.0188 </r>
        <r>  0.0024  0.0143  0.0031  0.0013  0.0323  0.0001  0.0496  0.0003  0.0020 </r>
        <r>  0.0057  0.0019  0.0000  0.0006  0.0897  0.0061  0.0075  0.0181  0.0299 </r>
       </set>
       <set comment="band 29">
        <r>  0.0025  0.0054  0.0024  0.0104  0.0193  0.0041  0.0085  0.0008  0.0323 </r>
        <r>  0.0025  0.0033  0.0024  0.0127  0.0186  0.0014  0.0086  0.0037  0.0325 </r>
        <r>  0.0000  0.0021  0.0024  0.0062  0.0108  0.0054  0.0000  0.0018  0.0320 </r>
       </set>
       <set comment="band 30">
        <r>  0.0063  0.0022  0.0001  0.0187  0.0138  0.0021  0.0240  0.0165  0.0793 </r>
        <r>  0.0063  0.0091  0.0001  0.0118  0.0364  0.0182  0.0239  0.0006  0.0569 </r>
        <r>  0.0113  0.0017  0.0000  0.0005  0.0131  0.0012  0.0268  0.0035  0.0043 </r>
       </set>
       <set comment="band 31">
        <r>  0.0001  0.0054  0.0152  0.0183  0.0032  0.0240  0.0337  0.0711  0.0041 </r>
        <r>  0.0001  0.0099  0.0153  0.0149  0.0068  0.0263  0.0323  0.0685  0.0007 </r>
        <r>  0.0000  0.0169  0.0185  0.0514  0.0260  0.0200  0.0000  0.0058  0.0763 </r>
       </set>
       <set comment="band 32">
        <r>  0.0065  0.0027  0.0178  0.0059  0.0545  0.0377  0.0035  0.0724  0.0123 </r>
        <r>  0.0067  0.0038  0.0163  0.0037  0.0085  0.0339  0.0038  0.0808  0.0602 </r>
        <r>  0.0230  0.0024  0.0000  0.0003  0.0604  0.0356  0.0097  0.1128  0.0249 </r>
       </set>
      </set>
      <set comment="kpoint 10">
       <set comment="band 1">
        <r>  0.2035  0.0001  0.0000  0.0079  0.0000  0.0002  0.0001  0.0000  0.0001 </r>
        <r>  0.2451  0.0043  0.0000  0.0014  0.0002  0.0001  0.0001  0.0002  0.0001 </r>
        <r>  0.2035  0.0054  0.0000  0.0027  0.0001  0.0001  0.0001  0.0002  0.0000 </r>
       </set>
       <set comment="band 2">
        <r>  0.3312  0.0018  0.0010  0.0014  0.0001  0.0000  0.0000  0.0003  0.0000 </r>
        <r>  0.0000  0.0023  0.0056  0.0069  0.0001  0.0007  0.0000  0.0002  0.0002 </r>
        <r>  0.3312  0.0006  0.0010  0.0026  0.0001  0.0002  0.0000  0.0001  0.0001 </r>
       </set>
       <set comment="band 3">
        <r>  0.1316  0.0046  0.0044  0.0002  0.0004  0.0000  0.0000  0.0011  0.0000 </r>
        <r>  0.4271  0.0012  0.0000  0.0004  0.0000  0.0000  0.0000  0.0000  0.0000 </r>
        <r>  0.1316  0.0020  0.0044  0.0028  0.0002  0.0007  0.0000  0.0004  0.0002 </r>
       </set>
       <set comment="band 4">
        <r>  0.0009  0.0011  0.0481  0.0858  0.0001  0.0004  0.0003  0.0010  0.0006 </r>
        <r>  0.0000  0.0017  0.1566  0.0050  0.0001  0.0028  0.0000  0.0009  0.0003 </r>
        <r>  0.0009  0.0581  0.0481  0.0288  0.0003  0.0014  0.0003  0.0001  0.0003 </r>
       </set>
       <set comment="band 5">
        <r>  0.0014  0.0337  0.1028  0.0336  0.0002  0.0002  0.0000  0.0029  0.0002 </r>
        <r>  0.0045  0.0706  0.0000  0.0235  0.0006  0.0004  0.0005  0.0011  0.0002 </r>
        <r>  0.0014  0.0158  0.1028  0.0515  0.0002  0.0015  0.0000  0.0016  0.0001 </r>
       </set>
       <set comment="band 6">
        <r>  0.0188  0.0798  0.0194  0.0727  0.0002  0.0000  0.0004  0.0002  0.0002 </r>
        <r>  0.0091  0.0446  0.0000  0.0149  0.0001  0.0010  0.0007  0.0030  0.0000 </r>
        <r>  0.0188  0.1095  0.0195  0.0431  0.0003  0.0001  0.0004  0.0002  0.0000 </r>
       </set>
       <set comment="band 7">
        <r>  0.0240  0.0109  0.0334  0.0015  0.0000  0.0018  0.0007  0.0012  0.0001 </r>
        <r>  0.0000  0.0698  0.0072  0.2093  0.0002  0.0001  0.0000  0.0000  0.0005 </r>
        <r>  0.0241  0.0009  0.0333  0.0115  0.0001  0.0004  0.0007  0.0026  0.0000 </r>
       </set>
       <set comment="band 8">
        <r>  0.0080  0.0659  0.0227  0.0569  0.0002  0.0025  0.0006  0.0007  0.0001 </r>
        <r>  0.0399  0.0907  0.0000  0.0302  0.0008  0.0000  0.0006  0.0001  0.0003 </r>
        <r>  0.0080  0.0452  0.0227  0.0776  0.0002  0.0022  0.0006  0.0010  0.0001 </r>
       </set>
       <set comment="band 9">
        <r>  0.0079  0.1159  0.0418  0.0026  0.0012  0.0007  0.0001  0.0013  0.0000 </r>
        <r>  0.0000  0.0001  0.1017  0.0003  0.0001  0.0027  0.0000  0.0009  0.0003 </r>
        <r>  0.0079  0.0434  0.0418  0.0751  0.0004  0.0017  0.0001  0.0003  0.0008 </r>
       </set>
       <set comment="band 10">
        <r>  0.0002  0.0341  0.0953  0.0419  0.0033  0.0020  0.0014  0.0021  0.0004 </r>
        <r>  0.0152  0.1405  0.0000  0.0468  0.0045  0.0005  0.0038  0.0015  0.0015 </r>
        <r>  0.0002  0.0274  0.0953  0.0486  0.0020  0.0034  0.0014  0.0006  0.0017 </r>
       </set>
       <set comment="band 11">
        <r>  0.0062  0.0990  0.0162  0.0723  0.0041  0.0001  0.0008  0.0001  0.0007 </r>
        <r>  0.0000  0.0046  0.2086  0.0137  0.0003  0.0050  0.0000  0.0017  0.0008 </r>
        <r>  0.0062  0.1372  0.0162  0.0341  0.0028  0.0002  0.0008  0.0001  0.0020 </r>
       </set>
       <set comment="band 12">
        <r>  0.0023  0.0359  0.1107  0.0814  0.0007  0.0008  0.0011  0.0018  0.0006 </r>
        <r>  0.0000  0.0418  0.0295  0.1253  0.0011  0.0007  0.0000  0.0002  0.0032 </r>
        <r>  0.0023  0.0248  0.1107  0.0925  0.0009  0.0006  0.0011  0.0021  0.0004 </r>
       </set>
       <set comment="band 13">
        <r>  0.0004  0.0093  0.0121  0.0305  0.0104  0.0119  0.0093  0.0008  0.0114 </r>
        <r>  0.0013  0.0119  0.0000  0.0040  0.0187  0.0020  0.0055  0.0061  0.0062 </r>
        <r>  0.0004  0.0324  0.0121  0.0074  0.0196  0.0009  0.0093  0.0118  0.0022 </r>
       </set>
       <set comment="band 14">
        <r>  0.0006  0.0131  0.0043  0.0185  0.0222  0.0025  0.0019  0.0011  0.0210 </r>
        <r>  0.0014  0.0251  0.0000  0.0084  0.0037  0.0023  0.0292  0.0070  0.0012 </r>
        <r>  0.0006  0.0119  0.0043  0.0197  0.0078  0.0023  0.0019  0.0014  0.0353 </r>
       </set>
       <set comment="band 15">
        <r>  0.0039  0.0064  0.0050  0.0243  0.0102  0.0023  0.0239  0.0022  0.0048 </r>
        <r>  0.0000  0.0092  0.0127  0.0277  0.0115  0.0060  0.0000  0.0020  0.0344 </r>
        <r>  0.0039  0.0114  0.0050  0.0193  0.0100  0.0026  0.0239  0.0019  0.0049 </r>
       </set>
       <set comment="band 16">
        <r>  0.0274  0.0036  0.0036  0.0088  0.0043  0.0183  0.0088  0.0234  0.0188 </r>
        <r>  0.0000  0.0020  0.0073  0.0059  0.0042  0.0760  0.0000  0.0253  0.0127 </r>
        <r>  0.0274  0.0061  0.0036  0.0063  0.0143  0.0319  0.0088  0.0098  0.0089 </r>
       </set>
       <set comment="band 17">
        <r>  0.0095  0.0032  0.0130  0.0025  0.0045  0.0324  0.0009  0.0553  0.0092 </r>
        <r>  0.0439  0.0154  0.0000  0.0051  0.0149  0.0032  0.0016  0.0095  0.0050 </r>
        <r>  0.0095  0.0008  0.0130  0.0049  0.0108  0.0695  0.0009  0.0183  0.0030 </r>
       </set>
       <set comment="band 18">
        <r>  0.0254  0.0001  0.0013  0.0058  0.0051  0.0490  0.0061  0.0277  0.0049 </r>
        <r>  0.0162  0.0007  0.0000  0.0002  0.0177  0.0205  0.0074  0.0615  0.0059 </r>
        <r>  0.0254  0.0046  0.0013  0.0013  0.0070  0.0061  0.0061  0.0707  0.0030 </r>
       </set>
       <set comment="band 19">
        <r>  0.0010  0.0201  0.0127  0.0040  0.0129  0.0021  0.0161  0.0239  0.0104 </r>
        <r>  0.0004  0.0026  0.0000  0.0009  0.0122  0.0063  0.1073  0.0188  0.0041 </r>
        <r>  0.0010  0.0077  0.0127  0.0164  0.0124  0.0174  0.0161  0.0085  0.0109 </r>
       </set>
       <set comment="band 20">
        <r>  0.0030  0.0046  0.0035  0.0052  0.0089  0.0095  0.0836  0.0142  0.0079 </r>
        <r>  0.0000  0.0060  0.0146  0.0179  0.0021  0.0140  0.0000  0.0047  0.0062 </r>
        <r>  0.0030  0.0020  0.0035  0.0078  0.0011  0.0056  0.0836  0.0181  0.0157 </r>
       </set>
       <set comment="band 21">
        <r>  0.0007  0.0067  0.0014  0.0113  0.0254  0.0070  0.0070  0.0012  0.0801 </r>
        <r>  0.0024  0.0026  0.0000  0.0009  0.0176  0.0112  0.0560  0.0336  0.0058 </r>
        <r>  0.0007  0.0046  0.0014  0.0133  0.0278  0.0048  0.0070  0.0034  0.0778 </r>
       </set>
       <set comment="band 22">
        <r>  0.0030  0.0012  0.0117  0.0006  0.0100  0.0412  0.0066  0.0141  0.0425 </r>
        <r>  0.0000  0.0039  0.0115  0.0117  0.0281  0.0026  0.0000  0.0009  0.0843 </r>
        <r>  0.0030  0.0015  0.0117  0.0003  0.0496  0.0219  0.0066  0.0334  0.0028 </r>
       </set>
       <set comment="band 23">
        <r>  0.0010  0.0100  0.0124  0.0033  0.0561  0.0161  0.0388  0.0170  0.0253 </r>
        <r>  0.0000  0.0024  0.0102  0.0072  0.0009  0.0074  0.0000  0.0025  0.0026 </r>
        <r>  0.0010  0.0100  0.0124  0.0034  0.0221  0.0183  0.0388  0.0148  0.0593 </r>
       </set>
       <set comment="band 24">
        <r>  0.0008  0.0002  0.0071  0.0125  0.0012  0.0007  0.0783  0.0105  0.0253 </r>
        <r>  0.0064  0.0045  0.0000  0.0015  0.0444  0.0063  0.0047  0.0188  0.0148 </r>
        <r>  0.0008  0.0108  0.0071  0.0019  0.0177  0.0100  0.0783  0.0012  0.0088 </r>
       </set>
       <set comment="band 25">
        <r>  0.0024  0.0004  0.0063  0.0040  0.0081  0.0014  0.0169  0.0023  0.0059 </r>
        <r>  0.0000  0.0085  0.0108  0.0254  0.0300  0.0365  0.0000  0.0122  0.0899 </r>
        <r>  0.0024  0.0039  0.0063  0.0005  0.0080  0.0035  0.0169  0.0002  0.0060 </r>
       </set>
       <set comment="band 26">
        <r>  0.0041  0.0006  0.0025  0.0044  0.0110  0.0256  0.0357  0.0007  0.0111 </r>
        <r>  0.0025  0.0112  0.0000  0.0037  0.0311  0.0001  0.0825  0.0002  0.0104 </r>
        <r>  0.0041  0.0048  0.0025  0.0002  0.0167  0.0092  0.0357  0.0171  0.0054 </r>
       </set>
       <set comment="band 27">
        <r>  0.0038  0.0227  0.0089  0.0139  0.0095  0.0045  0.0008  0.0224  0.0125 </r>
        <r>  0.0000  0.0038  0.0309  0.0113  0.0008  0.0136  0.0000  0.0045  0.0025 </r>
        <r>  0.0038  0.0011  0.0089  0.0355  0.0068  0.0103  0.0008  0.0166  0.0151 </r>
       </set>
       <set comment="band 28">
        <r>  0.0019  0.0168  0.0001  0.0001  0.0608  0.0114  0.0102  0.0073  0.0010 </r>
        <r>  0.0051  0.0095  0.0000  0.0032  0.0384  0.0069  0.0524  0.0208  0.0128 </r>
        <r>  0.0019  0.0048  0.0001  0.0122  0.0193  0.0127  0.0102  0.0061  0.0425 </r>
       </set>
       <set comment="band 29">
        <r>  0.0015  0.0145  0.0137  0.0090  0.0076  0.0138  0.0113  0.0510  0.0160 </r>
        <r>  0.0047  0.0467  0.0000  0.0156  0.0292  0.0137  0.0440  0.0410  0.0097 </r>
        <r>  0.0015  0.0200  0.0137  0.0035  0.0148  0.0495  0.0113  0.0153  0.0088 </r>
       </set>
       <set comment="band 30">
        <r>  0.0085  0.0187  0.0096  0.0228  0.0232  0.0153  0.0039  0.0228  0.0404 </r>
        <r>  0.0000  0.0043  0.0180  0.0128  0.0204  0.0587  0.0000  0.0196  0.0613 </r>
        <r>  0.0085  0.0332  0.0096  0.0083  0.0101  0.0135  0.0039  0.0246  0.0535 </r>
       </set>
       <set comment="band 31">
        <r>  0.0006  0.0031  0.0136  0.0017  0.0497  0.0202  0.0044  0.0420  0.0146 </r>
        <r>  0.0025  0.0007  0.0000  0.0002  0.0769  0.0204  0.0106  0.0616  0.0255 </r>
        <r>  0.0006  0.0001  0.0136  0.0047  0.0465  0.0244  0.0044  0.0379  0.0180 </r>
       </set>
       <set comment="band 32">
        <r>  0.0005  0.0092  0.0023  0.0109  0.0812  0.0423  0.0100  0.0067  0.0399 </r>
        <r>  0.0000  0.0035  0.0129  0.0106  0.0001  0.0335  0.0000  0.0112  0.0002 </r>
        <r>  0.0005  0.0066  0.0023  0.0135  0.0991  0.0130  0.0100  0.0360  0.0219 </r>
       </set>
      </set>
      <set comment="kpoint 11">
       <set comment="band 1">
        <r>  0.2026  0.0000  0.0004  0.0015  0.0000  0.0001  0.0000  0.0000  0.0000 </r>
        <r>  0.2026  0.0011  0.0004  0.0004  0.0000  0.0000  0.0000  0.0001  0.0000 </r>
        <r>  0.2026  0.0011  0.0004  0.0004  0.0000  0.0000  0.0000  0.0001  0.0000 </r>
       </set>
       <set comment="band 2">
        <r>  0.2133  0.0006  0.0126  0.0002  0.0001  0.0000  0.0000  0.0003  0.0000 </r>
        <r>  0.2133  0.0003  0.0126  0.0005  0.0000  0.0002  0.0000  0.0001  0.0001 </r>
        <r>  0.2133  0.0003  0.0126  0.0005  0.0000  0.0002  0.0000  0.0001  0.0001 </r>
       </set>
       <set comment="band 3">
        <r>  0.2326  0.0007  0.0129  0.0001  0.0001  0.0000  0.0000  0.0003  0.0000 </r>
        <r>  0.2326  0.0002  0.0129  0.0005  0.0000  0.0002  0.0000  0.0001  0.0001 </r>
        <r>  0.2326  0.0002  0.0129  0.0005  0.0000  0.0002  0.0000  0.0001  0.0001 </r>
       </set>
       <set comment="band 4">
        <r>  0.0003  0.0015  0.0002  0.1621  0.0000  0.0009  0.0005  0.0001  0.0016 </r>
        <r>  0.0003  0.1220  0.0002  0.0416  0.0012  0.0003  0.0005  0.0007  0.0004 </r>
        <r>  0.0003  0.1222  0.0003  0.0417  0.0012  0.0003  0.0005  0.0007  0.0004 </r>
       </set>
       <set comment="band 5">
        <r>  0.0309  0.0247  0.1042  0.0281  0.0007  0.0001  0.0004  0.0017  0.0000 </r>
        <r>  0.0309  0.0272  0.1042  0.0256  0.0002  0.0013  0.0004  0.0005  0.0005 </r>
        <r>  0.0309  0.0270  0.1042  0.0255  0.0002  0.0013  0.0004  0.0005  0.0005 </r>
       </set>
       <set comment="band 6">
        <r>  0.0172  0.0485  0.0399  0.0777  0.0003  0.0002  0.0001  0.0017  0.0001 </r>
        <r>  0.0172  0.0704  0.0399  0.0558  0.0001  0.0013  0.0001  0.0006  0.0002 </r>
        <r>  0.0172  0.0704  0.0399  0.0558  0.0001  0.0013  0.0001  0.0006  0.0002 </r>
       </set>
       <set comment="band 7">
        <r>  0.0057  0.1173  0.0297  0.0060  0.0009  0.0000  0.0008  0.0005  0.0013 </r>
        <r>  0.0057  0.0338  0.0297  0.0894  0.0012  0.0004  0.0008  0.0001  0.0010 </r>
        <r>  0.0057  0.0338  0.0297  0.0895  0.0012  0.0004  0.0008  0.0001  0.0010 </r>
       </set>
       <set comment="band 8">
        <r>  0.0219  0.0741  0.0655  0.0000  0.0004  0.0000  0.0018  0.0000  0.0015 </r>
        <r>  0.0219  0.0185  0.0655  0.0555  0.0012  0.0000  0.0018  0.0000  0.0007 </r>
        <r>  0.0219  0.0185  0.0655  0.0555  0.0012  0.0000  0.0018  0.0000  0.0007 </r>
       </set>
       <set comment="band 9">
        <r>  0.0002  0.1554  0.0134  0.0010  0.0012  0.0000  0.0000  0.0007  0.0003 </r>
        <r>  0.0002  0.0396  0.0134  0.1168  0.0005  0.0005  0.0000  0.0002  0.0010 </r>
        <r>  0.0002  0.0396  0.0134  0.1168  0.0005  0.0005  0.0000  0.0002  0.0010 </r>
       </set>
       <set comment="band 10">
        <r>  0.0135  0.0461  0.0223  0.0951  0.0000  0.0005  0.0001  0.0045  0.0005 </r>
        <r>  0.0135  0.0828  0.0223  0.0583  0.0004  0.0035  0.0001  0.0015  0.0002 </r>
        <r>  0.0135  0.0828  0.0223  0.0583  0.0004  0.0035  0.0001  0.0015  0.0002 </r>
       </set>
       <set comment="band 11">
        <r>  0.0056  0.0257  0.0099  0.1374  0.0004  0.0026  0.0014  0.0008  0.0009 </r>
        <r>  0.0056  0.1095  0.0099  0.0537  0.0008  0.0012  0.0014  0.0021  0.0005 </r>
        <r>  0.0056  0.1095  0.0099  0.0537  0.0008  0.0012  0.0014  0.0021  0.0005 </r>
       </set>
       <set comment="band 12">
        <r>  0.0057  0.0068  0.1570  0.0001  0.0055  0.0000  0.0002  0.0019  0.0000 </r>
        <r>  0.0057  0.0017  0.1570  0.0051  0.0014  0.0014  0.0002  0.0005  0.0042 </r>
        <r>  0.0057  0.0017  0.1570  0.0051  0.0014  0.0014  0.0002  0.0005  0.0042 </r>
       </set>
       <set comment="band 13">
        <r>  0.0002  0.0048  0.0153  0.0028  0.0044  0.0000  0.0433  0.0017  0.0000 </r>
        <r>  0.0002  0.0033  0.0153  0.0043  0.0011  0.0013  0.0433  0.0004  0.0033 </r>
        <r>  0.0002  0.0033  0.0153  0.0043  0.0011  0.0013  0.0433  0.0004  0.0033 </r>
       </set>
       <set comment="band 14">
        <r>  0.0001  0.0001  0.0299  0.0015  0.0094  0.0089  0.0245  0.0104  0.0090 </r>
        <r>  0.0001  0.0011  0.0299  0.0004  0.0091  0.0100  0.0245  0.0092  0.0093 </r>
        <r>  0.0001  0.0011  0.0299  0.0004  0.0091  0.0100  0.0245  0.0092  0.0093 </r>
       </set>
       <set comment="band 15">
        <r>  0.0001  0.0030  0.0024  0.0012  0.0211  0.0229  0.0000  0.0046  0.0201 </r>
        <r>  0.0001  0.0017  0.0024  0.0026  0.0204  0.0092  0.0000  0.0183  0.0208 </r>
        <r>  0.0001  0.0017  0.0024  0.0026  0.0204  0.0092  0.0000  0.0183  0.0208 </r>
       </set>
       <set comment="band 16">
        <r>  0.0011  0.0005  0.0004  0.0030  0.0005  0.0124  0.0008  0.0429  0.0356 </r>
        <r>  0.0011  0.0024  0.0004  0.0011  0.0268  0.0353  0.0008  0.0200  0.0093 </r>
        <r>  0.0011  0.0024  0.0004  0.0011  0.0268  0.0353  0.0008  0.0200  0.0093 </r>
       </set>
       <set comment="band 17">
        <r>  0.0639  0.0001  0.0111  0.0044  0.0010  0.0039  0.0005  0.0000  0.0000 </r>
        <r>  0.0639  0.0034  0.0111  0.0012  0.0003  0.0010  0.0005  0.0029  0.0008 </r>
        <r>  0.0639  0.0034  0.0111  0.0012  0.0003  0.0010  0.0005  0.0029  0.0008 </r>
       </set>
       <set comment="band 18">
        <r>  0.0004  0.0111  0.0010  0.0004  0.0250  0.0047  0.0015  0.0122  0.0230 </r>
        <r>  0.0004  0.0031  0.0010  0.0085  0.0235  0.0103  0.0015  0.0066  0.0245 </r>
        <r>  0.0004  0.0031  0.0010  0.0085  0.0235  0.0103  0.0015  0.0066  0.0245 </r>
       </set>
       <set comment="band 19">
        <r>  0.0001  0.0015  0.0109  0.0017  0.0091  0.0329  0.0121  0.0139  0.0081 </r>
        <r>  0.0001  0.0016  0.0109  0.0015  0.0084  0.0187  0.0121  0.0282  0.0088 </r>
        <r>  0.0001  0.0016  0.0109  0.0015  0.0084  0.0187  0.0121  0.0282  0.0088 </r>
       </set>
       <set comment="band 20">
        <r>  0.0014  0.0095  0.0035  0.0037  0.0204  0.0202  0.0002  0.0062  0.0211 </r>
        <r>  0.0014  0.0051  0.0035  0.0080  0.0209  0.0097  0.0002  0.0167  0.0206 </r>
        <r>  0.0014  0.0051  0.0035  0.0080  0.0209  0.0097  0.0002  0.0167  0.0205 </r>
       </set>
       <set comment="band 21">
        <r>  0.0000  0.0074  0.0007  0.0000  0.0438  0.0294  0.0025  0.0012  0.0021 </r>
        <r>  0.0000  0.0019  0.0007  0.0056  0.0125  0.0082  0.0025  0.0223  0.0334 </r>
        <r>  0.0000  0.0019  0.0007  0.0056  0.0125  0.0082  0.0025  0.0223  0.0334 </r>
       </set>
       <set comment="band 22">
        <r>  0.0000  0.0012  0.0006  0.0018  0.0001  0.0013  0.0146  0.0086  0.0025 </r>
        <r>  0.0000  0.0017  0.0006  0.0013  0.0019  0.0068  0.0146  0.0031  0.0007 </r>
        <r>  0.0000  0.0017  0.0006  0.0013  0.0019  0.0068  0.0146  0.0031  0.0007 </r>
       </set>
       <set comment="band 23">
        <r>  0.0000  0.0005  0.0050  0.0025  0.0036  0.0001  0.0326  0.0102  0.0023 </r>
        <r>  0.0000  0.0020  0.0050  0.0010  0.0027  0.0077  0.0326  0.0026  0.0033 </r>
        <r>  0.0000  0.0020  0.0050  0.0010  0.0027  0.0077  0.0326  0.0026  0.0033 </r>
       </set>
       <set comment="band 24">
        <r>  0.0006  0.0029  0.0025  0.0288  0.0029  0.0080  0.0024  0.1023  0.0201 </r>
        <r>  0.0006  0.0223  0.0025  0.0094  0.0158  0.0787  0.0024  0.0316  0.0072 </r>
        <r>  0.0006  0.0223  0.0025  0.0094  0.0158  0.0787  0.0024  0.0316  0.0072 </r>
       </set>
       <set comment="band 25">
        <r>  0.0063  0.0151  0.0171  0.0056  0.0112  0.0458  0.0212  0.0320  0.0213 </r>
        <r>  0.0063  0.0080  0.0171  0.0127  0.0187  0.0355  0.0211  0.0424  0.0137 </r>
        <r>  0.0063  0.0080  0.0171  0.0127  0.0187  0.0355  0.0211  0.0424  0.0137 </r>
       </set>
       <set comment="band 26">
        <r>  0.0102  0.0091  0.0191  0.0011  0.0198  0.0336  0.0256  0.0103  0.0282 </r>
        <r>  0.0102  0.0031  0.0191  0.0071  0.0261  0.0161  0.0256  0.0278  0.0219 </r>
        <r>  0.0102  0.0031  0.0191  0.0071  0.0261  0.0161  0.0256  0.0278  0.0219 </r>
       </set>
       <set comment="band 27">
        <r>  0.0015  0.0020  0.0238  0.0043  0.0026  0.0318  0.0640  0.0153  0.0165 </r>
        <r>  0.0015  0.0037  0.0241  0.0028  0.0133  0.0193  0.0633  0.0280  0.0062 </r>
        <r>  0.0015  0.0037  0.0241  0.0028  0.0134  0.0193  0.0631  0.0281  0.0063 </r>
       </set>
       <set comment="band 28">
        <r>  0.0106  0.0024  0.0245  0.0167  0.0044  0.0340  0.0268  0.0024  0.0069 </r>
        <r>  0.0105  0.0131  0.0245  0.0060  0.0063  0.0103  0.0268  0.0261  0.0051 </r>
        <r>  0.0106  0.0131  0.0246  0.0060  0.0063  0.0103  0.0268  0.0260  0.0051 </r>
       </set>
       <set comment="band 29">
        <r>  0.0000  0.0060  0.0005  0.0000  0.0860  0.0814  0.0001  0.0011  0.0155 </r>
        <r>  0.0000  0.0015  0.0004  0.0045  0.0333  0.0201  0.0001  0.0603  0.0698 </r>
        <r>  0.0000  0.0015  0.0004  0.0046  0.0340  0.0201  0.0001  0.0595  0.0698 </r>
       </set>
       <set comment="band 30">
        <r>  0.0069  0.0036  0.0014  0.0139  0.0102  0.0103  0.0020  0.1529  0.0296 </r>
        <r>  0.0069  0.0113  0.0014  0.0062  0.0245  0.1175  0.0020  0.0459  0.0150 </r>
        <r>  0.0069  0.0113  0.0014  0.0061  0.0246  0.1174  0.0020  0.0458  0.0150 </r>
       </set>
       <set comment="band 31">
        <r>  0.0026  0.0133  0.0082  0.0069  0.0087  0.0644  0.0772  0.0397  0.0408 </r>
        <r>  0.0026  0.0084  0.0084  0.0116  0.0329  0.0453  0.0778  0.0578  0.0170 </r>
        <r>  0.0026  0.0084  0.0084  0.0116  0.0332  0.0453  0.0778  0.0576  0.0169 </r>
       </set>
       <set comment="band 32">
        <r>  0.0016  0.0006  0.0030  0.0004  0.0142  0.0048  0.0866  0.0357  0.0484 </r>
        <r>  0.0005  0.0008  0.0153  0.0051  0.0221  0.0406  0.1451  0.0157  0.0043 </r>
        <r>  0.0003  0.0012  0.0175  0.0065  0.0112  0.0353  0.1559  0.0240  0.0008 </r>
       </set>
      </set>
      <set comment="kpoint 12">
       <set comment="band 1">
        <r>  0.2018  0.0001  0.0004  0.0020  0.0000  0.0001  0.0000  0.0000  0.0000 </r>
        <r>  0.2065  0.0013  0.0003  0.0005  0.0001  0.0000  0.0000  0.0001  0.0000 </r>
        <r>  0.2018  0.0013  0.0004  0.0008  0.0000  0.0000  0.0000  0.0001  0.0000 </r>
       </set>
       <set comment="band 2">
        <r>  0.2233  0.0005  0.0113  0.0003  0.0001  0.0000  0.0000  0.0004  0.0000 </r>
        <r>  0.2006  0.0003  0.0121  0.0008  0.0000  0.0002  0.0000  0.0001  0.0001 </r>
        <r>  0.2233  0.0003  0.0113  0.0005  0.0001  0.0002  0.0000  0.0002  0.0001 </r>
       </set>
       <set comment="band 3">
        <r>  0.2270  0.0005  0.0112  0.0007  0.0002  0.0000  0.0000  0.0003  0.0000 </r>
        <r>  0.2476  0.0005  0.0107  0.0014  0.0000  0.0003  0.0000  0.0001  0.0001 </r>
        <r>  0.2270  0.0009  0.0112  0.0003  0.0001  0.0002  0.0000  0.0001  0.0001 </r>
       </set>
       <set comment="band 4">
        <r>  0.0095  0.0228  0.0505  0.1013  0.0003  0.0004  0.0010  0.0010  0.0003 </r>
        <r>  0.0026  0.0075  0.0784  0.0134  0.0005  0.0001  0.0004  0.0001  0.0002 </r>
        <r>  0.0095  0.0417  0.0505  0.0823  0.0006  0.0004  0.0010  0.0010  0.0001 </r>
       </set>
       <set comment="band 5">
        <r>  0.0066  0.0374  0.0580  0.0241  0.0003  0.0002  0.0005  0.0013  0.0009 </r>
        <r>  0.0282  0.1745  0.0002  0.0582  0.0006  0.0003  0.0000  0.0009  0.0005 </r>
        <r>  0.0066  0.0438  0.0580  0.0177  0.0003  0.0014  0.0005  0.0000  0.0008 </r>
       </set>
       <set comment="band 6">
        <r>  0.0248  0.0281  0.0383  0.0816  0.0005  0.0001  0.0001  0.0003  0.0004 </r>
        <r>  0.0064  0.0273  0.0569  0.0803  0.0004  0.0020  0.0010  0.0008  0.0006 </r>
        <r>  0.0248  0.1085  0.0383  0.0012  0.0004  0.0004  0.0001  0.0000  0.0004 </r>
       </set>
       <set comment="band 7">
        <r>  0.0120  0.1227  0.0636  0.0095  0.0009  0.0004  0.0003  0.0004  0.0005 </r>
        <r>  0.0225  0.0152  0.0280  0.0231  0.0023  0.0005  0.0014  0.0002  0.0008 </r>
        <r>  0.0120  0.0302  0.0636  0.1020  0.0003  0.0008  0.0003  0.0000  0.0011 </r>
       </set>
       <set comment="band 8">
        <r>  0.0141  0.1585  0.0183  0.0220  0.0002  0.0006  0.0009  0.0001  0.0009 </r>
        <r>  0.0000  0.0265  0.0482  0.0160  0.0005  0.0004  0.0001  0.0001  0.0014 </r>
        <r>  0.0141  0.0403  0.0183  0.1401  0.0005  0.0003  0.0009  0.0005  0.0006 </r>
       </set>
       <set comment="band 9">
        <r>  0.0063  0.0223  0.0251  0.0447  0.0009  0.0003  0.0003  0.0029  0.0011 </r>
        <r>  0.0010  0.0656  0.0456  0.1954  0.0001  0.0009  0.0001  0.0006  0.0000 </r>
        <r>  0.0063  0.0537  0.0251  0.0133  0.0019  0.0018  0.0003  0.0015  0.0001 </r>
       </set>
       <set comment="band 10">
        <r>  0.0180  0.0306  0.0357  0.1329  0.0008  0.0012  0.0004  0.0029  0.0008 </r>
        <r>  0.0163  0.0130  0.0405  0.0116  0.0021  0.0015  0.0019  0.0025  0.0007 </r>
        <r>  0.0180  0.0527  0.0357  0.1108  0.0014  0.0009  0.0004  0.0032  0.0002 </r>
       </set>
       <set comment="band 11">
        <r>  0.0036  0.0786  0.0301  0.0478  0.0012  0.0008  0.0004  0.0030  0.0001 </r>
        <r>  0.0226  0.1565  0.0008  0.0535  0.0001  0.0006  0.0009  0.0017  0.0002 </r>
        <r>  0.0036  0.1062  0.0301  0.0201  0.0001  0.0035  0.0004  0.0003  0.0012 </r>
       </set>
       <set comment="band 12">
        <r>  0.0016  0.0003  0.1265  0.0304  0.0054  0.0005  0.0006  0.0007  0.0002 </r>
        <r>  0.0001  0.0158  0.1573  0.0336  0.0012  0.0045  0.0000  0.0019  0.0021 </r>
        <r>  0.0016  0.0235  0.1265  0.0072  0.0024  0.0012  0.0006  0.0001  0.0032 </r>
       </set>
       <set comment="band 13">
        <r>  0.0042  0.0000  0.0147  0.0025  0.0090  0.0017  0.0322  0.0020  0.0014 </r>
        <r>  0.0015  0.0062  0.0021  0.0149  0.0027  0.0011  0.0360  0.0024  0.0026 </r>
        <r>  0.0042  0.0021  0.0147  0.0004  0.0051  0.0003  0.0322  0.0034  0.0054 </r>
       </set>
       <set comment="band 14">
        <r>  0.0001  0.0052  0.0149  0.0006  0.0060  0.0039  0.0234  0.0088  0.0163 </r>
        <r>  0.0001  0.0029  0.0277  0.0040  0.0042  0.0119  0.0123  0.0086  0.0069 </r>
        <r>  0.0001  0.0015  0.0149  0.0043  0.0188  0.0115  0.0234  0.0012  0.0034 </r>
       </set>
       <set comment="band 15">
        <r>  0.0006  0.0011  0.0014  0.0014  0.0143  0.0259  0.0043  0.0005  0.0216 </r>
        <r>  0.0001  0.0014  0.0036  0.0005  0.0199  0.0121  0.0000  0.0041  0.0399 </r>
        <r>  0.0006  0.0020  0.0014  0.0004  0.0048  0.0044  0.0043  0.0219  0.0312 </r>
       </set>
       <set comment="band 16">
        <r>  0.0264  0.0039  0.0033  0.0030  0.0035  0.0168  0.0028  0.0149  0.0091 </r>
        <r>  0.0186  0.0001  0.0012  0.0003  0.0286  0.0171  0.0108  0.0073  0.0098 </r>
        <r>  0.0264  0.0043  0.0033  0.0027  0.0039  0.0105  0.0028  0.0213  0.0087 </r>
       </set>
       <set comment="band 17">
        <r>  0.0197  0.0011  0.0022  0.0058  0.0078  0.0085  0.0023  0.0186  0.0289 </r>
        <r>  0.0179  0.0036  0.0000  0.0042  0.0012  0.0259  0.0015  0.0312  0.0020 </r>
        <r>  0.0197  0.0030  0.0022  0.0039  0.0352  0.0252  0.0023  0.0019  0.0015 </r>
       </set>
       <set comment="band 18">
        <r>  0.0003  0.0069  0.0032  0.0007  0.0399  0.0330  0.0087  0.0015  0.0042 </r>
        <r>  0.0013  0.0032  0.0047  0.0094  0.0094  0.0074  0.0111  0.0029  0.0104 </r>
        <r>  0.0003  0.0023  0.0032  0.0052  0.0047  0.0066  0.0087  0.0279  0.0394 </r>
       </set>
       <set comment="band 19">
        <r>  0.0094  0.0038  0.0262  0.0182  0.0075  0.0022  0.0019  0.0306  0.0078 </r>
        <r>  0.0181  0.0020  0.0017  0.0039  0.0360  0.0011  0.0102  0.0032  0.0126 </r>
        <r>  0.0094  0.0088  0.0262  0.0132  0.0088  0.0207  0.0019  0.0122  0.0065 </r>
       </set>
       <set comment="band 20">
        <r>  0.0004  0.0031  0.0084  0.0027  0.0058  0.0162  0.0151  0.0105  0.0242 </r>
        <r>  0.0007  0.0044  0.0149  0.0080  0.0093  0.0105  0.0079  0.0309  0.0225 </r>
        <r>  0.0004  0.0052  0.0084  0.0006  0.0249  0.0230  0.0151  0.0037  0.0051 </r>
       </set>
       <set comment="band 21">
        <r>  0.0007  0.0139  0.0063  0.0055  0.0388  0.0155  0.0048  0.0004  0.0028 </r>
        <r>  0.0013  0.0015  0.0086  0.0025  0.0112  0.0237  0.0088  0.0410  0.0285 </r>
        <r>  0.0007  0.0019  0.0063  0.0175  0.0088  0.0037  0.0048  0.0123  0.0328 </r>
       </set>
       <set comment="band 22">
        <r>  0.0011  0.0016  0.0001  0.0006  0.0030  0.0134  0.0089  0.0171  0.0115 </r>
        <r>  0.0003  0.0055  0.0017  0.0090  0.0034  0.0020  0.0058  0.0008  0.0025 </r>
        <r>  0.0011  0.0017  0.0001  0.0005  0.0141  0.0081  0.0089  0.0224  0.0004 </r>
       </set>
       <set comment="band 23">
        <r>  0.0038  0.0002  0.0077  0.0074  0.0064  0.0060  0.0079  0.0239  0.0066 </r>
        <r>  0.0006  0.0013  0.0079  0.0023  0.0009  0.0213  0.0253  0.0197  0.0027 </r>
        <r>  0.0038  0.0062  0.0077  0.0014  0.0079  0.0122  0.0079  0.0176  0.0051 </r>
       </set>
       <set comment="band 24">
        <r>  0.0111  0.0028  0.0079  0.0126  0.0095  0.0072  0.0398  0.0736  0.0049 </r>
        <r>  0.0022  0.0059  0.0001  0.0098  0.0260  0.0078  0.0037  0.0230  0.0088 </r>
        <r>  0.0111  0.0050  0.0079  0.0105  0.0120  0.0372  0.0398  0.0436  0.0025 </r>
       </set>
       <set comment="band 25">
        <r>  0.0014  0.0129  0.0077  0.0038  0.0243  0.0388  0.0223  0.0006  0.0257 </r>
        <r>  0.0069  0.0061  0.0308  0.0024  0.0112  0.0538  0.0362  0.0218  0.0045 </r>
        <r>  0.0014  0.0111  0.0077  0.0056  0.0061  0.0132  0.0223  0.0262  0.0438 </r>
       </set>
       <set comment="band 26">
        <r>  0.0031  0.0020  0.0141  0.0012  0.0115  0.0139  0.0106  0.0251  0.0351 </r>
        <r>  0.0047  0.0265  0.0169  0.0099  0.0046  0.0506  0.0636  0.0433  0.0054 </r>
        <r>  0.0031  0.0012  0.0141  0.0020  0.0424  0.0337  0.0106  0.0053  0.0042 </r>
       </set>
       <set comment="band 27">
        <r>  0.0006  0.0150  0.0044  0.0105  0.0118  0.0876  0.0166  0.0312  0.0377 </r>
        <r>  0.0007  0.0051  0.0068  0.0064  0.0232  0.0148  0.0078  0.0082  0.0693 </r>
        <r>  0.0006  0.0174  0.0044  0.0081  0.0131  0.0773  0.0166  0.0416  0.0363 </r>
       </set>
       <set comment="band 28">
        <r>  0.0022  0.0141  0.0043  0.0070  0.0069  0.0305  0.0740  0.0412  0.0200 </r>
        <r>  0.0013  0.0182  0.0044  0.0083  0.0052  0.0902  0.0156  0.0300  0.0137 </r>
        <r>  0.0022  0.0153  0.0044  0.0058  0.0070  0.0664  0.0739  0.0053  0.0200 </r>
       </set>
       <set comment="band 29">
        <r>  0.0047  0.0025  0.0413  0.0219  0.0052  0.0470  0.0253  0.0012  0.0305 </r>
        <r>  0.0075  0.0027  0.0004  0.0070  0.0524  0.0134  0.0394  0.0352  0.0211 </r>
        <r>  0.0047  0.0128  0.0412  0.0119  0.0133  0.0080  0.0256  0.0402  0.0221 </r>
       </set>
       <set comment="band 30">
        <r>  0.0027  0.0005  0.0067  0.0198  0.0132  0.0069  0.0641  0.0104  0.0173 </r>
        <r>  0.0022  0.0053  0.0046  0.0077  0.0266  0.0019  0.0075  0.0022  0.0645 </r>
        <r>  0.0028  0.0140  0.0069  0.0061  0.0093  0.0103  0.0632  0.0072  0.0218 </r>
       </set>
       <set comment="band 31">
        <r>  0.0189  0.0130  0.0021  0.0091  0.0395  0.0309  0.0164  0.0934  0.0075 </r>
        <r>  0.0052  0.0006  0.0335  0.0002  0.0639  0.0165  0.0007  0.0177  0.0214 </r>
        <r>  0.0189  0.0006  0.0020  0.0214  0.0309  0.0343  0.0171  0.0897  0.0165 </r>
       </set>
       <set comment="band 32">
        <r>  0.0048  0.0008  0.0043  0.0021  0.0769  0.0281  0.0540  0.0464  0.0255 </r>
        <r>  0.0028  0.0059  0.0116  0.0038  0.0156  0.0565  0.1155  0.1221  0.0090 </r>
        <r>  0.0048  0.0008  0.0043  0.0021  0.0698  0.0392  0.0539  0.0354  0.0324 </r>
       </set>
      </set>
      <set comment="kpoint 13">
       <set comment="band 1">
        <r>  0.2053  0.0004  0.0004  0.0015  0.0000  0.0001  0.0000  0.0000  0.0001 </r>
        <r>  0.2024  0.0017  0.0003  0.0004  0.0000  0.0000  0.0000  0.0001  0.0000 </r>
        <r>  0.2024  0.0017  0.0003  0.0004  0.0000  0.0000  0.0000  0.0001  0.0000 </r>
       </set>
       <set comment="band 2">
        <r>  0.2101  0.0007  0.0120  0.0005  0.0001  0.0001  0.0000  0.0003  0.0000 </r>
        <r>  0.2185  0.0001  0.0112  0.0006  0.0000  0.0003  0.0000  0.0001  0.0001 </r>
        <r>  0.2185  0.0001  0.0112  0.0006  0.0000  0.0003  0.0000  0.0001  0.0001 </r>
       </set>
       <set comment="band 3">
        <r>  0.2373  0.0004  0.0102  0.0004  0.0001  0.0001  0.0001  0.0002  0.0000 </r>
        <r>  0.2334  0.0009  0.0116  0.0004  0.0000  0.0004  0.0000  0.0001  0.0001 </r>
        <r>  0.2334  0.0009  0.0116  0.0004  0.0000  0.0004  0.0000  0.0001  0.0001 </r>
       </set>
       <set comment="band 4">
        <r>  0.0057  0.0271  0.0577  0.0250  0.0000  0.0003  0.0005  0.0003  0.0009 </r>
        <r>  0.0075  0.1305  0.0191  0.0125  0.0004  0.0004  0.0009  0.0001  0.0006 </r>
        <r>  0.0075  0.1305  0.0191  0.0125  0.0004  0.0004  0.0009  0.0001  0.0006 </r>
       </set>
       <set comment="band 5">
        <r>  0.0260  0.0909  0.0630  0.0146  0.0005  0.0003  0.0007  0.0021  0.0000 </r>
        <r>  0.0177  0.0259  0.1048  0.0137  0.0001  0.0004  0.0003  0.0007  0.0005 </r>
        <r>  0.0177  0.0259  0.1048  0.0137  0.0001  0.0004  0.0003  0.0007  0.0005 </r>
       </set>
       <set comment="band 6">
        <r>  0.0092  0.0010  0.0152  0.1903  0.0004  0.0005  0.0002  0.0002  0.0000 </r>
        <r>  0.0066  0.0102  0.0163  0.1114  0.0010  0.0007  0.0001  0.0005  0.0001 </r>
        <r>  0.0066  0.0102  0.0163  0.1114  0.0010  0.0007  0.0001  0.0005  0.0001 </r>
       </set>
       <set comment="band 7">
        <r>  0.0175  0.0240  0.0271  0.0166  0.0004  0.0000  0.0019  0.0016  0.0023 </r>
        <r>  0.0137  0.0297  0.0597  0.1152  0.0010  0.0002  0.0006  0.0008  0.0003 </r>
        <r>  0.0137  0.0297  0.0597  0.1152  0.0010  0.0002  0.0006  0.0008  0.0003 </r>
       </set>
       <set comment="band 8">
        <r>  0.0000  0.0960  0.0330  0.0380  0.0012  0.0000  0.0000  0.0005  0.0015 </r>
        <r>  0.0153  0.0589  0.0304  0.0743  0.0013  0.0003  0.0010  0.0005  0.0011 </r>
        <r>  0.0153  0.0589  0.0304  0.0742  0.0013  0.0003  0.0010  0.0005  0.0011 </r>
       </set>
       <set comment="band 9">
        <r>  0.0074  0.1613  0.0677  0.0159  0.0004  0.0000  0.0000  0.0004  0.0005 </r>
        <r>  0.0033  0.0481  0.0254  0.0655  0.0002  0.0031  0.0001  0.0003  0.0008 </r>
        <r>  0.0033  0.0481  0.0254  0.0655  0.0002  0.0031  0.0001  0.0003  0.0008 </r>
       </set>
       <set comment="band 10">
        <r>  0.0027  0.0862  0.0853  0.0026  0.0007  0.0008  0.0001  0.0081  0.0000 </r>
        <r>  0.0304  0.1019  0.0027  0.0346  0.0002  0.0011  0.0000  0.0002  0.0009 </r>
        <r>  0.0304  0.1019  0.0027  0.0346  0.0002  0.0011  0.0000  0.0002  0.0009 </r>
       </set>
       <set comment="band 11">
        <r>  0.0315  0.0002  0.0030  0.1754  0.0009  0.0016  0.0003  0.0004  0.0005 </r>
        <r>  0.0026  0.0482  0.0355  0.0609  0.0011  0.0011  0.0017  0.0048  0.0006 </r>
        <r>  0.0026  0.0482  0.0355  0.0609  0.0011  0.0011  0.0017  0.0048  0.0006 </r>
       </set>
       <set comment="band 12">
        <r>  0.0002  0.0008  0.0824  0.0123  0.0051  0.0026  0.0001  0.0005  0.0015 </r>
        <r>  0.0033  0.0392  0.1546  0.0057  0.0012  0.0043  0.0003  0.0005  0.0035 </r>
        <r>  0.0033  0.0392  0.1546  0.0057  0.0012  0.0043  0.0003  0.0005  0.0035 </r>
       </set>
       <set comment="band 13">
        <r>  0.0003  0.0013  0.0068  0.0064  0.0028  0.0103  0.0295  0.0001  0.0087 </r>
        <r>  0.0002  0.0018  0.0073  0.0043  0.0011  0.0033  0.0227  0.0025  0.0174 </r>
        <r>  0.0002  0.0018  0.0073  0.0043  0.0011  0.0033  0.0227  0.0025  0.0174 </r>
       </set>
       <set comment="band 14">
        <r>  0.0008  0.0116  0.0503  0.0007  0.0011  0.0007  0.0183  0.0024  0.0182 </r>
        <r>  0.0007  0.0015  0.0149  0.0017  0.0051  0.0138  0.0282  0.0010  0.0088 </r>
        <r>  0.0007  0.0015  0.0149  0.0017  0.0051  0.0138  0.0282  0.0009  0.0088 </r>
       </set>
       <set comment="band 15">
        <r>  0.0222  0.0013  0.0066  0.0017  0.0064  0.0001  0.0141  0.0002  0.0371 </r>
        <r>  0.0121  0.0015  0.0042  0.0018  0.0001  0.0237  0.0132  0.0023  0.0174 </r>
        <r>  0.0121  0.0015  0.0042  0.0018  0.0001  0.0237  0.0132  0.0023  0.0174 </r>
       </set>
       <set comment="band 16">
        <r>  0.0070  0.0045  0.0000  0.0038  0.0122  0.0372  0.0122  0.0002  0.0008 </r>
        <r>  0.0029  0.0034  0.0053  0.0029  0.0348  0.0020  0.0054  0.0296  0.0107 </r>
        <r>  0.0029  0.0034  0.0053  0.0029  0.0348  0.0020  0.0054  0.0296  0.0107 </r>
       </set>
       <set comment="band 17">
        <r>  0.0041  0.0001  0.0014  0.0150  0.0024  0.0055  0.0011  0.0695  0.0049 </r>
        <r>  0.0131  0.0027  0.0064  0.0053  0.0373  0.0046  0.0023  0.0147  0.0015 </r>
        <r>  0.0131  0.0027  0.0064  0.0053  0.0373  0.0046  0.0023  0.0147  0.0015 </r>
       </set>
       <set comment="band 18">
        <r>  0.0189  0.0127  0.0000  0.0062  0.0583  0.0012  0.0027  0.0094  0.0045 </r>
        <r>  0.0236  0.0220  0.0085  0.0062  0.0078  0.0046  0.0049  0.0041  0.0009 </r>
        <r>  0.0236  0.0220  0.0085  0.0062  0.0078  0.0046  0.0049  0.0041  0.0009 </r>
       </set>
       <set comment="band 19">
        <r>  0.0046  0.0130  0.0035  0.0010  0.0199  0.0009  0.0037  0.0060  0.0049 </r>
        <r>  0.0039  0.0039  0.0049  0.0130  0.0302  0.0047  0.0031  0.0388  0.0130 </r>
        <r>  0.0039  0.0039  0.0049  0.0130  0.0302  0.0047  0.0031  0.0388  0.0130 </r>
       </set>
       <set comment="band 20">
        <r>  0.0005  0.0021  0.0076  0.0008  0.0159  0.0523  0.0079  0.0000  0.0110 </r>
        <r>  0.0010  0.0009  0.0189  0.0031  0.0024  0.0292  0.0015  0.0154  0.0257 </r>
        <r>  0.0010  0.0009  0.0189  0.0031  0.0024  0.0292  0.0015  0.0154  0.0257 </r>
       </set>
       <set comment="band 21">
        <r>  0.0000  0.0092  0.0165  0.0031  0.0180  0.0082  0.0005  0.0001  0.0124 </r>
        <r>  0.0000  0.0025  0.0040  0.0047  0.0087  0.0214  0.0190  0.0136  0.0350 </r>
        <r>  0.0000  0.0025  0.0040  0.0047  0.0087  0.0214  0.0190  0.0136  0.0350 </r>
       </set>
       <set comment="band 22">
        <r>  0.0003  0.0012  0.0012  0.0006  0.0005  0.0170  0.0171  0.0166  0.0256 </r>
        <r>  0.0003  0.0047  0.0018  0.0022  0.0009  0.0018  0.0052  0.0076  0.0013 </r>
        <r>  0.0003  0.0047  0.0018  0.0022  0.0009  0.0018  0.0052  0.0076  0.0013 </r>
       </set>
       <set comment="band 23">
        <r>  0.0002  0.0050  0.0010  0.0059  0.0066  0.0038  0.0264  0.0020  0.0007 </r>
        <r>  0.0004  0.0021  0.0067  0.0000  0.0017  0.0209  0.0219  0.0078  0.0117 </r>
        <r>  0.0004  0.0021  0.0067  0.0000  0.0017  0.0209  0.0219  0.0078  0.0117 </r>
       </set>
       <set comment="band 24">
        <r>  0.0035  0.0004  0.0093  0.0207  0.0150  0.0148  0.0002  0.0946  0.0049 </r>
        <r>  0.0059  0.0045  0.0059  0.0147  0.0210  0.0193  0.0242  0.0418  0.0030 </r>
        <r>  0.0059  0.0045  0.0059  0.0147  0.0210  0.0193  0.0242  0.0418  0.0030 </r>
       </set>
       <set comment="band 25">
        <r>  0.0155  0.0002  0.0193  0.0000  0.0002  0.0151  0.0288  0.0084  0.0527 </r>
        <r>  0.0110  0.0119  0.0128  0.0118  0.0178  0.0655  0.0161  0.0275  0.0034 </r>
        <r>  0.0110  0.0119  0.0128  0.0118  0.0178  0.0655  0.0161  0.0275  0.0034 </r>
       </set>
       <set comment="band 26">
        <r>  0.0075  0.0129  0.0147  0.0168  0.0002  0.0565  0.0414  0.0534  0.0072 </r>
        <r>  0.0025  0.0011  0.0130  0.0044  0.0067  0.0151  0.0126  0.0252  0.0319 </r>
        <r>  0.0025  0.0011  0.0130  0.0044  0.0067  0.0151  0.0125  0.0252  0.0319 </r>
       </set>
       <set comment="band 27">
        <r>  0.0001  0.0099  0.0094  0.0049  0.0288  0.0610  0.0001  0.0056  0.0015 </r>
        <r>  0.0046  0.0354  0.0262  0.0005  0.0139  0.0473  0.0267  0.0163  0.0357 </r>
        <r>  0.0046  0.0355  0.0263  0.0005  0.0140  0.0472  0.0267  0.0163  0.0357 </r>
       </set>
       <set comment="band 28">
        <r>  0.0042  0.0233  0.0003  0.0004  0.0232  0.0028  0.0718  0.0011  0.0714 </r>
        <r>  0.0034  0.0142  0.0044  0.0007  0.0005  0.0842  0.1228  0.0001  0.0103 </r>
        <r>  0.0034  0.0142  0.0044  0.0007  0.0004  0.0840  0.1227  0.0001  0.0102 </r>
       </set>
       <set comment="band 29">
        <r>  0.0007  0.0110  0.0060  0.0010  0.0773  0.0607  0.0451  0.0085  0.0006 </r>
        <r>  0.0011  0.0021  0.0066  0.0009  0.0887  0.0110  0.0064  0.0668  0.0152 </r>
        <r>  0.0011  0.0022  0.0066  0.0010  0.0873  0.0108  0.0064  0.0667  0.0152 </r>
       </set>
       <set comment="band 30">
        <r>  0.0092  0.0028  0.0184  0.0035  0.0368  0.0527  0.0182  0.0043  0.0056 </r>
        <r>  0.0046  0.0057  0.0059  0.0135  0.0530  0.0223  0.0168  0.0027  0.0095 </r>
        <r>  0.0032  0.0045  0.0040  0.0135  0.0540  0.0144  0.0198  0.0028  0.0124 </r>
       </set>
       <set comment="band 31">
        <r>  0.0035  0.0002  0.0177  0.0001  0.0016  0.0034  0.0612  0.0040  0.0003 </r>
        <r>  0.0088  0.0011  0.0254  0.0007  0.0126  0.0183  0.0082  0.0239  0.0362 </r>
        <r>  0.0097  0.0020  0.0313  0.0013  0.0198  0.0354  0.0068  0.0143  0.0285 </r>
       </set>
       <set comment="band 32">
        <r>  0.0010  0.0010  0.0020  0.0283  0.0207  0.0261  0.0014  0.1482  0.0137 </r>
        <r>  0.0011  0.0001  0.0049  0.0138  0.0440  0.0017  0.0033  0.0568  0.0349 </r>
        <r>  0.0021  0.0002  0.0021  0.0092  0.0440  0.0009  0.0056  0.0778  0.0310 </r>
       </set>
      </set>
      <set comment="kpoint 14">
       <set comment="band 1">
        <r>  0.1994  0.0003  0.0003  0.0036  0.0000  0.0001  0.0000  0.0000  0.0000 </r>
        <r>  0.2195  0.0016  0.0002  0.0009  0.0001  0.0001  0.0000  0.0002  0.0000 </r>
        <r>  0.1994  0.0021  0.0003  0.0018  0.0000  0.0001  0.0000  0.0001  0.0000 </r>
       </set>
       <set comment="band 2">
        <r>  0.2567  0.0006  0.0078  0.0006  0.0002  0.0001  0.0000  0.0006  0.0000 </r>
        <r>  0.1520  0.0007  0.0113  0.0020  0.0001  0.0003  0.0000  0.0002  0.0001 </r>
        <r>  0.2567  0.0003  0.0078  0.0009  0.0001  0.0003  0.0000  0.0004  0.0001 </r>
       </set>
       <set comment="band 3">
        <r>  0.2021  0.0006  0.0081  0.0025  0.0002  0.0000  0.0000  0.0004  0.0000 </r>
        <r>  0.2933  0.0010  0.0049  0.0028  0.0000  0.0002  0.0000  0.0001  0.0001 </r>
        <r>  0.2021  0.0019  0.0081  0.0012  0.0001  0.0003  0.0000  0.0002  0.0001 </r>
       </set>
       <set comment="band 4">
        <r>  0.0020  0.0271  0.0523  0.0818  0.0003  0.0003  0.0010  0.0013  0.0001 </r>
        <r>  0.0005  0.0029  0.0987  0.0076  0.0002  0.0005  0.0002  0.0004  0.0002 </r>
        <r>  0.0020  0.0305  0.0523  0.0784  0.0003  0.0006  0.0010  0.0009  0.0002 </r>
       </set>
       <set comment="band 5">
        <r>  0.0128  0.0315  0.0810  0.0290  0.0002  0.0001  0.0003  0.0010  0.0003 </r>
        <r>  0.0214  0.1073  0.0136  0.0408  0.0008  0.0007  0.0001  0.0016  0.0003 </r>
        <r>  0.0128  0.0198  0.0810  0.0407  0.0001  0.0011  0.0003  0.0000  0.0003 </r>
       </set>
       <set comment="band 6">
        <r>  0.0147  0.0572  0.0229  0.0640  0.0003  0.0001  0.0000  0.0003  0.0005 </r>
        <r>  0.0005  0.0587  0.0147  0.0783  0.0003  0.0011  0.0012  0.0004  0.0006 </r>
        <r>  0.0147  0.1142  0.0229  0.0069  0.0003  0.0002  0.0000  0.0001  0.0005 </r>
       </set>
       <set comment="band 7">
        <r>  0.0148  0.0027  0.0354  0.0509  0.0005  0.0010  0.0004  0.0024  0.0009 </r>
        <r>  0.0046  0.0581  0.0246  0.1552  0.0008  0.0004  0.0000  0.0008  0.0003 </r>
        <r>  0.0148  0.0445  0.0354  0.0092  0.0014  0.0009  0.0004  0.0025  0.0000 </r>
       </set>
       <set comment="band 8">
        <r>  0.0149  0.1141  0.0482  0.0243  0.0014  0.0006  0.0002  0.0010  0.0001 </r>
        <r>  0.0233  0.0055  0.0816  0.0096  0.0021  0.0015  0.0005  0.0007  0.0008 </r>
        <r>  0.0149  0.0493  0.0482  0.0891  0.0005  0.0016  0.0002  0.0000  0.0010 </r>
       </set>
       <set comment="band 9">
        <r>  0.0098  0.1519  0.0216  0.0121  0.0003  0.0012  0.0004  0.0013  0.0002 </r>
        <r>  0.0031  0.0806  0.0198  0.0281  0.0007  0.0008  0.0000  0.0003  0.0006 </r>
        <r>  0.0098  0.0374  0.0216  0.1265  0.0001  0.0023  0.0004  0.0002  0.0004 </r>
       </set>
       <set comment="band 10">
        <r>  0.0066  0.0655  0.0189  0.0673  0.0023  0.0010  0.0011  0.0027  0.0001 </r>
        <r>  0.0114  0.1155  0.0310  0.0395  0.0003  0.0040  0.0027  0.0032  0.0008 </r>
        <r>  0.0066  0.1243  0.0189  0.0085  0.0011  0.0034  0.0011  0.0003  0.0013 </r>
       </set>
       <set comment="band 11">
        <r>  0.0046  0.0048  0.0828  0.0697  0.0022  0.0029  0.0004  0.0001  0.0005 </r>
        <r>  0.0157  0.0196  0.1672  0.0116  0.0012  0.0043  0.0000  0.0016  0.0010 </r>
        <r>  0.0046  0.0439  0.0828  0.0306  0.0015  0.0011  0.0004  0.0019  0.0013 </r>
       </set>
       <set comment="band 12">
        <r>  0.0086  0.0298  0.1018  0.0772  0.0026  0.0006  0.0001  0.0029  0.0022 </r>
        <r>  0.0114  0.0328  0.0143  0.0969  0.0025  0.0009  0.0011  0.0015  0.0009 </r>
        <r>  0.0086  0.0239  0.1018  0.0831  0.0040  0.0013  0.0001  0.0022  0.0007 </r>
       </set>
       <set comment="band 13">
        <r>  0.0012  0.0123  0.0058  0.0010  0.0156  0.0043  0.0114  0.0037  0.0082 </r>
        <r>  0.0002  0.0146  0.0173  0.0128  0.0071  0.0021  0.0190  0.0053  0.0026 </r>
        <r>  0.0012  0.0067  0.0058  0.0065  0.0195  0.0014  0.0114  0.0065  0.0044 </r>
       </set>
       <set comment="band 14">
        <r>  0.0071  0.0052  0.0022  0.0143  0.0071  0.0055  0.0275  0.0033  0.0021 </r>
        <r>  0.0019  0.0043  0.0023  0.0120  0.0090  0.0029  0.0152  0.0084  0.0049 </r>
        <r>  0.0071  0.0047  0.0022  0.0148  0.0055  0.0004  0.0275  0.0084  0.0037 </r>
       </set>
       <set comment="band 15">
        <r>  0.0007  0.0009  0.0060  0.0006  0.0194  0.0165  0.0029  0.0003  0.0308 </r>
        <r>  0.0002  0.0064  0.0004  0.0033  0.0131  0.0180  0.0004  0.0063  0.0334 </r>
        <r>  0.0007  0.0001  0.0060  0.0013  0.0080  0.0044  0.0029  0.0123  0.0422 </r>
       </set>
       <set comment="band 16">
        <r>  0.0023  0.0016  0.0064  0.0015  0.0012  0.0251  0.0184  0.0211  0.0171 </r>
        <r>  0.0000  0.0036  0.0087  0.0021  0.0223  0.0358  0.0106  0.0155  0.0189 </r>
        <r>  0.0023  0.0018  0.0064  0.0012  0.0123  0.0367  0.0184  0.0095  0.0060 </r>
       </set>
       <set comment="band 17">
        <r>  0.0345  0.0059  0.0033  0.0207  0.0028  0.0031  0.0009  0.0171  0.0157 </r>
        <r>  0.0348  0.0057  0.0051  0.0137  0.0026  0.0046  0.0024  0.0123  0.0010 </r>
        <r>  0.0345  0.0113  0.0033  0.0154  0.0180  0.0103  0.0009  0.0099  0.0005 </r>
       </set>
       <set comment="band 18">
        <r>  0.0001  0.0110  0.0082  0.0003  0.0288  0.0370  0.0136  0.0005  0.0038 </r>
        <r>  0.0002  0.0023  0.0042  0.0034  0.0098  0.0079  0.0290  0.0032  0.0176 </r>
        <r>  0.0001  0.0039  0.0082  0.0074  0.0011  0.0071  0.0136  0.0304  0.0315 </r>
       </set>
       <set comment="band 19">
        <r>  0.0001  0.0013  0.0360  0.0181  0.0092  0.0018  0.0096  0.0164  0.0132 </r>
        <r>  0.0092  0.0028  0.0009  0.0069  0.0369  0.0024  0.0245  0.0057  0.0123 </r>
        <r>  0.0001  0.0130  0.0360  0.0064  0.0162  0.0173  0.0096  0.0009  0.0062 </r>
       </set>
       <set comment="band 20">
        <r>  0.0021  0.0061  0.0042  0.0077  0.0089  0.0175  0.0133  0.0132  0.0311 </r>
        <r>  0.0008  0.0085  0.0117  0.0136  0.0113  0.0098  0.0057  0.0178  0.0331 </r>
        <r>  0.0021  0.0104  0.0042  0.0033  0.0236  0.0262  0.0133  0.0045  0.0165 </r>
       </set>
       <set comment="band 21">
        <r>  0.0138  0.0057  0.0081  0.0125  0.0092  0.0022  0.0256  0.0573  0.0018 </r>
        <r>  0.0052  0.0016  0.0028  0.0035  0.0054  0.0380  0.0112  0.0875  0.0076 </r>
        <r>  0.0138  0.0048  0.0081  0.0134  0.0043  0.0341  0.0256  0.0253  0.0067 </r>
       </set>
       <set comment="band 22">
        <r>  0.0062  0.0153  0.0070  0.0058  0.0248  0.0348  0.0009  0.0378  0.0168 </r>
        <r>  0.0001  0.0114  0.0177  0.0282  0.0126  0.0033  0.0001  0.0077  0.0206 </r>
        <r>  0.0062  0.0003  0.0070  0.0208  0.0232  0.0121  0.0009  0.0605  0.0184 </r>
       </set>
       <set comment="band 23">
        <r>  0.0076  0.0020  0.0015  0.0011  0.0300  0.0153  0.0155  0.0133  0.0102 </r>
        <r>  0.0025  0.0005  0.0057  0.0002  0.0181  0.0031  0.0010  0.0016  0.0074 </r>
        <r>  0.0076  0.0001  0.0015  0.0030  0.0299  0.0014  0.0155  0.0271  0.0104 </r>
       </set>
       <set comment="band 24">
        <r>  0.0009  0.0088  0.0044  0.0078  0.0258  0.0001  0.0159  0.0280  0.0159 </r>
        <r>  0.0000  0.0014  0.0148  0.0013  0.0206  0.0394  0.0034  0.0258  0.0136 </r>
        <r>  0.0009  0.0094  0.0044  0.0072  0.0116  0.0223  0.0159  0.0058  0.0301 </r>
       </set>
       <set comment="band 25">
        <r>  0.0001  0.0070  0.0013  0.0030  0.0164  0.0332  0.0353  0.0001  0.0383 </r>
        <r>  0.0014  0.0099  0.0074  0.0033  0.0058  0.0045  0.0383  0.0021  0.0175 </r>
        <r>  0.0001  0.0070  0.0013  0.0030  0.0162  0.0094  0.0353  0.0240  0.0385 </r>
       </set>
       <set comment="band 26">
        <r>  0.0010  0.0048  0.0096  0.0094  0.0278  0.0110  0.0314  0.0024  0.0268 </r>
        <r>  0.0001  0.0051  0.0074  0.0048  0.0297  0.0104  0.1045  0.0063  0.0254 </r>
        <r>  0.0010  0.0080  0.0096  0.0062  0.0160  0.0025  0.0314  0.0109  0.0386 </r>
       </set>
       <set comment="band 27">
        <r>  0.0037  0.0053  0.0097  0.0040  0.0018  0.0009  0.0418  0.0107  0.0012 </r>
        <r>  0.0028  0.0141  0.0058  0.0047  0.0180  0.0194  0.0008  0.0132  0.0493 </r>
        <r>  0.0037  0.0029  0.0096  0.0064  0.0018  0.0100  0.0418  0.0016  0.0012 </r>
       </set>
       <set comment="band 28">
        <r>  0.0006  0.0014  0.0035  0.0017  0.0026  0.0435  0.0007  0.0192  0.0580 </r>
        <r>  0.0002  0.0121  0.0038  0.0079  0.0091  0.0097  0.0014  0.0160  0.0040 </r>
        <r>  0.0006  0.0029  0.0035  0.0002  0.0336  0.0498  0.0007  0.0129  0.0270 </r>
       </set>
       <set comment="band 29">
        <r>  0.0143  0.0041  0.0011  0.0145  0.0014  0.0109  0.0361  0.0123  0.0085 </r>
        <r>  0.0161  0.0040  0.0000  0.0119  0.0084  0.0717  0.0018  0.0256  0.0029 </r>
        <r>  0.0144  0.0151  0.0011  0.0035  0.0037  0.0171  0.0361  0.0060  0.0062 </r>
       </set>
       <set comment="band 30">
        <r>  0.0040  0.0165  0.0311  0.0131  0.0025  0.0054  0.0334  0.0524  0.0109 </r>
        <r>  0.0038  0.0074  0.0235  0.0026  0.0311  0.0403  0.0210  0.0394  0.0182 </r>
        <r>  0.0040  0.0145  0.0309  0.0149  0.0050  0.0479  0.0336  0.0106  0.0084 </r>
       </set>
       <set comment="band 31">
        <r>  0.0007  0.0128  0.0075  0.0012  0.0549  0.0715  0.0166  0.0079  0.0020 </r>
        <r>  0.0001  0.0147  0.0017  0.0050  0.0083  0.0268  0.0564  0.0331  0.0063 </r>
        <r>  0.0007  0.0014  0.0074  0.0127  0.0063  0.0361  0.0166  0.0431  0.0512 </r>
       </set>
       <set comment="band 32">
        <r>  0.0069  0.0012  0.0030  0.0160  0.0077  0.0206  0.0343  0.0500  0.0393 </r>
        <r>  0.0013  0.0024  0.0167  0.0017  0.0279  0.0378  0.0010  0.0446  0.0802 </r>
        <r>  0.0070  0.0087  0.0028  0.0084  0.0342  0.0157  0.0340  0.0544  0.0125 </r>
       </set>
      </set>
      <set comment="kpoint 15">
       <set comment="band 1">
        <r>  0.2169  0.0012  0.0005  0.0017  0.0000  0.0001  0.0000  0.0000  0.0001 </r>
        <r>  0.2003  0.0035  0.0003  0.0005  0.0000  0.0000  0.0000  0.0001  0.0000 </r>
        <r>  0.2003  0.0035  0.0003  0.0005  0.0000  0.0000  0.0000  0.0001  0.0000 </r>
       </set>
       <set comment="band 2">
        <r>  0.1811  0.0018  0.0102  0.0008  0.0001  0.0002  0.0000  0.0003  0.0001 </r>
        <r>  0.2407  0.0001  0.0074  0.0007  0.0000  0.0005  0.0000  0.0001  0.0002 </r>
        <r>  0.2407  0.0001  0.0074  0.0007  0.0000  0.0005  0.0000  0.0001  0.0002 </r>
       </set>
       <set comment="band 3">
        <r>  0.2678  0.0004  0.0047  0.0006  0.0001  0.0002  0.0000  0.0001  0.0001 </r>
        <r>  0.2247  0.0020  0.0086  0.0005  0.0000  0.0007  0.0000  0.0001  0.0002 </r>
        <r>  0.2247  0.0020  0.0086  0.0005  0.0000  0.0007  0.0000  0.0001  0.0002 </r>
       </set>
       <set comment="band 4">
        <r>  0.0100  0.0605  0.0519  0.0005  0.0000  0.0000  0.0005  0.0001  0.0002 </r>
        <r>  0.0033  0.1045  0.0355  0.0026  0.0001  0.0002  0.0007  0.0000  0.0004 </r>
        <r>  0.0034  0.1046  0.0355  0.0026  0.0001  0.0002  0.0007  0.0000  0.0004 </r>
       </set>
       <set comment="band 5">
        <r>  0.0073  0.0641  0.0831  0.0089  0.0004  0.0005  0.0004  0.0023  0.0000 </r>
        <r>  0.0096  0.0413  0.0989  0.0076  0.0002  0.0001  0.0003  0.0006  0.0001 </r>
        <r>  0.0096  0.0413  0.0989  0.0076  0.0002  0.0001  0.0003  0.0006  0.0001 </r>
       </set>
       <set comment="band 6">
        <r>  0.0046  0.0032  0.0015  0.1783  0.0003  0.0005  0.0004  0.0000  0.0000 </r>
        <r>  0.0022  0.0016  0.0072  0.1314  0.0008  0.0004  0.0000  0.0003  0.0001 </r>
        <r>  0.0022  0.0016  0.0072  0.1314  0.0008  0.0004  0.0000  0.0003  0.0001 </r>
       </set>
       <set comment="band 7">
        <r>  0.0084  0.0467  0.0049  0.0912  0.0004  0.0000  0.0013  0.0014  0.0033 </r>
        <r>  0.0105  0.0113  0.0617  0.0978  0.0006  0.0014  0.0007  0.0025  0.0000 </r>
        <r>  0.0105  0.0113  0.0617  0.0978  0.0006  0.0014  0.0007  0.0025  0.0000 </r>
       </set>
       <set comment="band 8">
        <r>  0.0051  0.0023  0.0464  0.0351  0.0009  0.0000  0.0000  0.0015  0.0023 </r>
        <r>  0.0072  0.0363  0.0392  0.1344  0.0005  0.0011  0.0001  0.0015  0.0008 </r>
        <r>  0.0072  0.0363  0.0392  0.1344  0.0005  0.0011  0.0001  0.0015  0.0008 </r>
       </set>
       <set comment="band 9">
        <r>  0.0015  0.2009  0.0574  0.0211  0.0001  0.0015  0.0000  0.0008  0.0000 </r>
        <r>  0.0145  0.0856  0.0142  0.0055  0.0003  0.0043  0.0011  0.0001  0.0012 </r>
        <r>  0.0145  0.0856  0.0142  0.0055  0.0003  0.0043  0.0011  0.0001  0.0012 </r>
       </set>
       <set comment="band 10">
        <r>  0.0317  0.0000  0.1113  0.0412  0.0008  0.0001  0.0003  0.0062  0.0001 </r>
        <r>  0.0184  0.0689  0.0161  0.0583  0.0013  0.0009  0.0004  0.0021  0.0022 </r>
        <r>  0.0184  0.0689  0.0161  0.0583  0.0013  0.0009  0.0004  0.0021  0.0022 </r>
       </set>
       <set comment="band 11">
        <r>  0.0253  0.0168  0.0849  0.0739  0.0016  0.0013  0.0001  0.0040  0.0019 </r>
        <r>  0.0191  0.0400  0.0584  0.0371  0.0002  0.0006  0.0007  0.0035  0.0019 </r>
        <r>  0.0191  0.0400  0.0584  0.0371  0.0002  0.0006  0.0007  0.0035  0.0019 </r>
       </set>
       <set comment="band 12">
        <r>  0.0017  0.0595  0.0064  0.0226  0.0020  0.0063  0.0000  0.0015  0.0026 </r>
        <r>  0.0083  0.0712  0.1251  0.0123  0.0003  0.0047  0.0001  0.0007  0.0033 </r>
        <r>  0.0083  0.0712  0.1251  0.0123  0.0003  0.0047  0.0001  0.0007  0.0033 </r>
       </set>
       <set comment="band 13">
        <r>  0.0000  0.0005  0.0004  0.0138  0.0012  0.0104  0.0175  0.0001  0.0152 </r>
        <r>  0.0008  0.0012  0.0030  0.0029  0.0011  0.0055  0.0132  0.0041  0.0217 </r>
        <r>  0.0008  0.0012  0.0030  0.0029  0.0011  0.0055  0.0132  0.0041  0.0217 </r>
       </set>
       <set comment="band 14">
        <r>  0.0019  0.0168  0.0326  0.0003  0.0019  0.0029  0.0174  0.0001  0.0110 </r>
        <r>  0.0033  0.0144  0.0052  0.0006  0.0027  0.0068  0.0285  0.0015  0.0104 </r>
        <r>  0.0033  0.0144  0.0052  0.0006  0.0027  0.0068  0.0285  0.0015  0.0104 </r>
       </set>
       <set comment="band 15">
        <r>  0.0041  0.0040  0.0018  0.0022  0.0251  0.0002  0.0164  0.0185  0.0079 </r>
        <r>  0.0047  0.0017  0.0027  0.0012  0.0378  0.0083  0.0089  0.0061  0.0068 </r>
        <r>  0.0047  0.0017  0.0027  0.0012  0.0378  0.0083  0.0089  0.0061  0.0068 </r>
       </set>
       <set comment="band 16">
        <r>  0.0076  0.0274  0.0041  0.0010  0.0003  0.0001  0.0263  0.0311  0.0141 </r>
        <r>  0.0006  0.0012  0.0052  0.0065  0.0198  0.0114  0.0154  0.0248  0.0031 </r>
        <r>  0.0006  0.0012  0.0052  0.0065  0.0198  0.0114  0.0154  0.0248  0.0031 </r>
       </set>
       <set comment="band 17">
        <r>  0.0012  0.0034  0.0040  0.0048  0.0392  0.0339  0.0114  0.0138  0.0039 </r>
        <r>  0.0012  0.0071  0.0054  0.0123  0.0299  0.0029  0.0084  0.0150  0.0095 </r>
        <r>  0.0012  0.0071  0.0054  0.0123  0.0299  0.0029  0.0084  0.0150  0.0095 </r>
       </set>
       <set comment="band 18">
        <r>  0.0042  0.0048  0.0003  0.0349  0.0360  0.0038  0.0075  0.0114  0.0125 </r>
        <r>  0.0104  0.0224  0.0229  0.0076  0.0092  0.0059  0.0071  0.0394  0.0017 </r>
        <r>  0.0104  0.0224  0.0229  0.0076  0.0092  0.0059  0.0071  0.0394  0.0017 </r>
       </set>
       <set comment="band 19">
        <r>  0.0110  0.0362  0.0225  0.0004  0.0035  0.0040  0.0014  0.0106  0.0016 </r>
        <r>  0.0131  0.0268  0.0158  0.0130  0.0152  0.0083  0.0068  0.0145  0.0200 </r>
        <r>  0.0131  0.0268  0.0158  0.0130  0.0152  0.0083  0.0068  0.0145  0.0200 </r>
       </set>
       <set comment="band 20">
        <r>  0.0042  0.0082  0.0144  0.0012  0.0240  0.0508  0.0030  0.0032  0.0193 </r>
        <r>  0.0021  0.0196  0.0160  0.0053  0.0102  0.0291  0.0018  0.0097  0.0234 </r>
        <r>  0.0021  0.0196  0.0160  0.0053  0.0102  0.0291  0.0018  0.0097  0.0234 </r>
       </set>
       <set comment="band 21">
        <r>  0.0013  0.0044  0.0193  0.0042  0.0143  0.0006  0.0043  0.0030  0.0072 </r>
        <r>  0.0012  0.0022  0.0095  0.0060  0.0123  0.0263  0.0304  0.0158  0.0297 </r>
        <r>  0.0012  0.0022  0.0095  0.0060  0.0123  0.0263  0.0304  0.0158  0.0297 </r>
       </set>
       <set comment="band 22">
        <r>  0.0024  0.0010  0.0038  0.0013  0.0097  0.0341  0.0146  0.0387  0.0505 </r>
        <r>  0.0048  0.0059  0.0061  0.0044  0.0043  0.0128  0.0007  0.0105  0.0014 </r>
        <r>  0.0048  0.0059  0.0061  0.0044  0.0043  0.0128  0.0007  0.0105  0.0014 </r>
       </set>
       <set comment="band 23">
        <r>  0.0039  0.0001  0.0038  0.0111  0.0232  0.0029  0.0000  0.0230  0.0000 </r>
        <r>  0.0065  0.0006  0.0055  0.0048  0.0099  0.0192  0.0272  0.0232  0.0053 </r>
        <r>  0.0065  0.0006  0.0055  0.0048  0.0099  0.0192  0.0272  0.0232  0.0053 </r>
       </set>
       <set comment="band 24">
        <r>  0.0007  0.0121  0.0056  0.0021  0.0015  0.0171  0.0004  0.0607  0.0335 </r>
        <r>  0.0057  0.0024  0.0082  0.0241  0.0530  0.0423  0.0085  0.0395  0.0066 </r>
        <r>  0.0057  0.0024  0.0082  0.0241  0.0530  0.0423  0.0085  0.0395  0.0066 </r>
       </set>
       <set comment="band 25">
        <r>  0.0181  0.0188  0.0018  0.0002  0.0000  0.0124  0.0274  0.0045  0.0028 </r>
        <r>  0.0061  0.0085  0.0151  0.0010  0.0020  0.0608  0.0314  0.0159  0.0234 </r>
        <r>  0.0061  0.0085  0.0151  0.0010  0.0020  0.0608  0.0314  0.0159  0.0234 </r>
       </set>
       <set comment="band 26">
        <r>  0.0068  0.0008  0.0233  0.0348  0.0418  0.0874  0.0357  0.0181  0.0001 </r>
        <r>  0.0107  0.0031  0.0043  0.0019  0.0114  0.0049  0.0043  0.0229  0.0195 </r>
        <r>  0.0107  0.0031  0.0043  0.0019  0.0114  0.0049  0.0043  0.0229  0.0195 </r>
       </set>
       <set comment="band 27">
        <r>  0.0001  0.0020  0.0003  0.0003  0.0089  0.0001  0.0700  0.0033  0.0063 </r>
        <r>  0.0137  0.0247  0.0091  0.0008  0.0018  0.0206  0.0656  0.0001  0.0389 </r>
        <r>  0.0137  0.0247  0.0091  0.0008  0.0018  0.0206  0.0656  0.0001  0.0389 </r>
       </set>
       <set comment="band 28">
        <r>  0.0112  0.0019  0.0104  0.0016  0.0492  0.0372  0.0006  0.0042  0.0000 </r>
        <r>  0.0069  0.0020  0.0029  0.0039  0.0630  0.0091  0.0117  0.0140  0.0061 </r>
        <r>  0.0069  0.0020  0.0029  0.0039  0.0631  0.0092  0.0116  0.0140  0.0061 </r>
       </set>
       <set comment="band 29">
        <r>  0.0132  0.0122  0.0008  0.0016  0.0051  0.0044  0.0377  0.0065  0.0578 </r>
        <r>  0.0036  0.0075  0.0104  0.0006  0.0005  0.0555  0.0162  0.0000  0.0170 </r>
        <r>  0.0036  0.0075  0.0104  0.0006  0.0005  0.0555  0.0162  0.0000  0.0169 </r>
       </set>
       <set comment="band 30">
        <r>  0.0005  0.0114  0.0069  0.0003  0.0100  0.0903  0.0430  0.0001  0.0031 </r>
        <r>  0.0031  0.0189  0.0018  0.0004  0.0210  0.0253  0.0401  0.0094  0.0196 </r>
        <r>  0.0033  0.0205  0.0020  0.0009  0.0277  0.0252  0.0385  0.0094  0.0184 </r>
       </set>
       <set comment="band 31">
        <r>  0.0011  0.0072  0.0000  0.0001  0.1038  0.0148  0.0399  0.0306  0.0090 </r>
        <r>  0.0003  0.0032  0.0028  0.0054  0.0448  0.0011  0.0014  0.0031  0.0022 </r>
        <r>  0.0001  0.0012  0.0030  0.0053  0.0357  0.0002  0.0060  0.0030  0.0058 </r>
       </set>
       <set comment="band 32">
        <r>  0.0002  0.0014  0.0067  0.0006  0.0026  0.0010  0.0341  0.0494  0.0247 </r>
        <r>  0.0026  0.0035  0.0013  0.0031  0.1029  0.0050  0.0035  0.0599  0.0054 </r>
        <r>  0.0026  0.0036  0.0014  0.0031  0.1029  0.0047  0.0030  0.0617  0.0064 </r>
       </set>
      </set>
      <set comment="kpoint 16">
       <set comment="band 1">
        <r>  0.1926  0.0005  0.0003  0.0058  0.0000  0.0001  0.0001  0.0001  0.0000 </r>
        <r>  0.2484  0.0020  0.0001  0.0010  0.0002  0.0001  0.0001  0.0002  0.0001 </r>
        <r>  0.1926  0.0033  0.0003  0.0029  0.0000  0.0001  0.0001  0.0001  0.0000 </r>
       </set>
       <set comment="band 2">
        <r>  0.3180  0.0010  0.0027  0.0015  0.0002  0.0001  0.0000  0.0005  0.0000 </r>
        <r>  0.0350  0.0020  0.0098  0.0059  0.0001  0.0004  0.0000  0.0002  0.0001 </r>
        <r>  0.3180  0.0005  0.0027  0.0020  0.0001  0.0003  0.0000  0.0004  0.0001 </r>
       </set>
       <set comment="band 3">
        <r>  0.1513  0.0009  0.0069  0.0030  0.0003  0.0001  0.0000  0.0008  0.0000 </r>
        <r>  0.3898  0.0005  0.0002  0.0016  0.0000  0.0000  0.0000  0.0000  0.0000 </r>
        <r>  0.1513  0.0021  0.0069  0.0018  0.0002  0.0005  0.0000  0.0004  0.0001 </r>
       </set>
       <set comment="band 4">
        <r>  0.0011  0.0243  0.0594  0.0688  0.0004  0.0002  0.0006  0.0013  0.0001 </r>
        <r>  0.0061  0.0001  0.1236  0.0002  0.0002  0.0012  0.0000  0.0006  0.0003 </r>
        <r>  0.0011  0.0305  0.0594  0.0626  0.0003  0.0008  0.0006  0.0006  0.0002 </r>
       </set>
       <set comment="band 5">
        <r>  0.0141  0.0511  0.0748  0.0354  0.0001  0.0000  0.0000  0.0015  0.0001 </r>
        <r>  0.0046  0.0635  0.0162  0.0250  0.0007  0.0009  0.0001  0.0024  0.0003 </r>
        <r>  0.0141  0.0101  0.0748  0.0763  0.0000  0.0011  0.0000  0.0004  0.0002 </r>
       </set>
       <set comment="band 6">
        <r>  0.0105  0.0439  0.0249  0.0978  0.0000  0.0000  0.0002  0.0002  0.0004 </r>
        <r>  0.0012  0.0553  0.0021  0.0412  0.0005  0.0006  0.0012  0.0005  0.0003 </r>
        <r>  0.0105  0.1410  0.0249  0.0007  0.0002  0.0001  0.0002  0.0002  0.0001 </r>
       </set>
       <set comment="band 7">
        <r>  0.0137  0.0072  0.0397  0.0103  0.0002  0.0012  0.0006  0.0014  0.0004 </r>
        <r>  0.0072  0.0789  0.0154  0.1768  0.0000  0.0000  0.0001  0.0000  0.0001 </r>
        <r>  0.0137  0.0142  0.0397  0.0033  0.0006  0.0002  0.0006  0.0023  0.0000 </r>
       </set>
       <set comment="band 8">
        <r>  0.0177  0.1149  0.0440  0.0178  0.0018  0.0011  0.0002  0.0011  0.0001 </r>
        <r>  0.0193  0.0041  0.0939  0.0118  0.0024  0.0016  0.0002  0.0006  0.0010 </r>
        <r>  0.0177  0.0489  0.0440  0.0838  0.0008  0.0020  0.0002  0.0003  0.0011 </r>
       </set>
       <set comment="band 9">
        <r>  0.0072  0.1301  0.0231  0.0081  0.0001  0.0016  0.0007  0.0024  0.0002 </r>
        <r>  0.0055  0.1165  0.0061  0.0412  0.0011  0.0012  0.0000  0.0006  0.0005 </r>
        <r>  0.0072  0.0332  0.0231  0.1049  0.0002  0.0038  0.0007  0.0001  0.0001 </r>
       </set>
       <set comment="band 10">
        <r>  0.0077  0.0685  0.0220  0.0551  0.0036  0.0016  0.0014  0.0021  0.0011 </r>
        <r>  0.0118  0.0781  0.0434  0.0289  0.0003  0.0074  0.0030  0.0039  0.0009 </r>
        <r>  0.0077  0.1112  0.0220  0.0124  0.0034  0.0031  0.0014  0.0007  0.0012 </r>
       </set>
       <set comment="band 11">
        <r>  0.0059  0.0006  0.0947  0.0583  0.0025  0.0043  0.0002  0.0004  0.0007 </r>
        <r>  0.0226  0.0264  0.1238  0.0199  0.0033  0.0039  0.0001  0.0014  0.0014 </r>
        <r>  0.0059  0.0416  0.0947  0.0174  0.0021  0.0021  0.0002  0.0026  0.0011 </r>
       </set>
       <set comment="band 12">
        <r>  0.0038  0.0186  0.0986  0.1117  0.0011  0.0009  0.0006  0.0012  0.0019 </r>
        <r>  0.0025  0.0353  0.0589  0.1050  0.0013  0.0002  0.0004  0.0001  0.0004 </r>
        <r>  0.0038  0.0490  0.0986  0.0814  0.0028  0.0003  0.0006  0.0017  0.0002 </r>
       </set>
       <set comment="band 13">
        <r>  0.0014  0.0192  0.0031  0.0001  0.0163  0.0082  0.0097  0.0018  0.0044 </r>
        <r>  0.0000  0.0215  0.0068  0.0188  0.0092  0.0023  0.0145  0.0062  0.0031 </r>
        <r>  0.0014  0.0045  0.0031  0.0148  0.0146  0.0003  0.0097  0.0096  0.0061 </r>
       </set>
       <set comment="band 14">
        <r>  0.0069  0.0102  0.0009  0.0419  0.0096  0.0074  0.0097  0.0048  0.0058 </r>
        <r>  0.0011  0.0068  0.0012  0.0135  0.0113  0.0080  0.0081  0.0138  0.0045 </r>
        <r>  0.0069  0.0163  0.0009  0.0357  0.0128  0.0032  0.0097  0.0089  0.0025 </r>
       </set>
       <set comment="band 15">
        <r>  0.0020  0.0047  0.0126  0.0002  0.0000  0.0128  0.0401  0.0239  0.0047 </r>
        <r>  0.0013  0.0111  0.0114  0.0051  0.0180  0.0192  0.0223  0.0065  0.0229 </r>
        <r>  0.0020  0.0018  0.0126  0.0030  0.0036  0.0343  0.0401  0.0023  0.0011 </r>
       </set>
       <set comment="band 16">
        <r>  0.0010  0.0093  0.0086  0.0007  0.0203  0.0123  0.0002  0.0018  0.0446 </r>
        <r>  0.0001  0.0070  0.0014  0.0049  0.0097  0.0256  0.0048  0.0095  0.0232 </r>
        <r>  0.0010  0.0039  0.0086  0.0061  0.0150  0.0068  0.0002  0.0072  0.0499 </r>
       </set>
       <set comment="band 17">
        <r>  0.0156  0.0106  0.0077  0.0338  0.0050  0.0028  0.0043  0.0167  0.0186 </r>
        <r>  0.0312  0.0137  0.0138  0.0360  0.0016  0.0012  0.0026  0.0032  0.0006 </r>
        <r>  0.0156  0.0148  0.0077  0.0296  0.0228  0.0086  0.0043  0.0109  0.0008 </r>
       </set>
       <set comment="band 18">
        <r>  0.0006  0.0180  0.0054  0.0025  0.0163  0.0578  0.0106  0.0013  0.0068 </r>
        <r>  0.0002  0.0085  0.0013  0.0044  0.0132  0.0167  0.0303  0.0063  0.0250 </r>
        <r>  0.0006  0.0115  0.0054  0.0090  0.0001  0.0148  0.0106  0.0443  0.0231 </r>
       </set>
       <set comment="band 19">
        <r>  0.0315  0.0008  0.0162  0.0042  0.0160  0.0076  0.0119  0.0274  0.0029 </r>
        <r>  0.0090  0.0003  0.0029  0.0009  0.0231  0.0286  0.0007  0.0740  0.0088 </r>
        <r>  0.0315  0.0025  0.0162  0.0025  0.0118  0.0116  0.0119  0.0234  0.0072 </r>
       </set>
       <set comment="band 20">
        <r>  0.0028  0.0030  0.0133  0.0072  0.0074  0.0015  0.0373  0.0694  0.0089 </r>
        <r>  0.0001  0.0083  0.0020  0.0190  0.0129  0.0015  0.0411  0.0020  0.0141 </r>
        <r>  0.0028  0.0101  0.0133  0.0001  0.0043  0.0607  0.0373  0.0101  0.0120 </r>
       </set>
       <set comment="band 21">
        <r>  0.0004  0.0066  0.0021  0.0059  0.0051  0.0017  0.0270  0.0055  0.0546 </r>
        <r>  0.0013  0.0088  0.0084  0.0148  0.0200  0.0133  0.0420  0.0134  0.0483 </r>
        <r>  0.0004  0.0038  0.0021  0.0087  0.0364  0.0066  0.0270  0.0006  0.0233 </r>
       </set>
       <set comment="band 22">
        <r>  0.0071  0.0025  0.0019  0.0155  0.0244  0.0061  0.0339  0.0201  0.0172 </r>
        <r>  0.0032  0.0062  0.0000  0.0044  0.0168  0.0082  0.0058  0.0082  0.0499 </r>
        <r>  0.0071  0.0108  0.0019  0.0072  0.0067  0.0076  0.0339  0.0186  0.0350 </r>
       </set>
       <set comment="band 23">
        <r>  0.0050  0.0170  0.0049  0.0077  0.0140  0.0511  0.0134  0.0009  0.0402 </r>
        <r>  0.0034  0.0025  0.0001  0.0014  0.0066  0.0021  0.0129  0.0061  0.0082 </r>
        <r>  0.0050  0.0145  0.0049  0.0102  0.0157  0.0181  0.0134  0.0339  0.0385 </r>
       </set>
       <set comment="band 24">
        <r>  0.0022  0.0136  0.0217  0.0019  0.0149  0.0038  0.0042  0.0300  0.0135 </r>
        <r>  0.0011  0.0128  0.0241  0.0043  0.0568  0.0291  0.0146  0.0201  0.0411 </r>
        <r>  0.0022  0.0012  0.0217  0.0142  0.0176  0.0272  0.0042  0.0066  0.0108 </r>
       </set>
       <set comment="band 25">
        <r>  0.0031  0.0076  0.0036  0.0013  0.0036  0.0475  0.0007  0.0064  0.0821 </r>
        <r>  0.0003  0.0023  0.0045  0.0022  0.0260  0.0047  0.0261  0.0108  0.0112 </r>
        <r>  0.0031  0.0038  0.0036  0.0051  0.0672  0.0282  0.0007  0.0257  0.0184 </r>
       </set>
       <set comment="band 26">
        <r>  0.0029  0.0002  0.0032  0.0053  0.0762  0.0033  0.0735  0.0192  0.0115 </r>
        <r>  0.0085  0.0036  0.0118  0.0106  0.0059  0.0479  0.0141  0.0286  0.0139 </r>
        <r>  0.0029  0.0032  0.0032  0.0023  0.0272  0.0134  0.0736  0.0092  0.0605 </r>
       </set>
       <set comment="band 27">
        <r>  0.0006  0.0168  0.0016  0.0151  0.0006  0.0016  0.0029  0.0271  0.0089 </r>
        <r>  0.0006  0.0163  0.0200  0.0084  0.0150  0.0014  0.0134  0.0018  0.0243 </r>
        <r>  0.0006  0.0085  0.0017  0.0234  0.0048  0.0152  0.0029  0.0136  0.0047 </r>
       </set>
       <set comment="band 28">
        <r>  0.0016  0.0015  0.0053  0.0060  0.0140  0.0009  0.0347  0.0097  0.0001 </r>
        <r>  0.0008  0.0088  0.0003  0.0229  0.0021  0.0125  0.0138  0.0223  0.0007 </r>
        <r>  0.0016  0.0026  0.0053  0.0049  0.0028  0.0073  0.0347  0.0035  0.0112 </r>
       </set>
       <set comment="band 29">
        <r>  0.0016  0.0081  0.0016  0.0047  0.0383  0.0211  0.0143  0.0216  0.0197 </r>
        <r>  0.0003  0.0067  0.0011  0.0022  0.0164  0.0220  0.0371  0.0079  0.0222 </r>
        <r>  0.0016  0.0109  0.0016  0.0019  0.0026  0.0226  0.0143  0.0186  0.0556 </r>
       </set>
       <set comment="band 30">
        <r>  0.0105  0.0017  0.0178  0.0068  0.0121  0.0441  0.0001  0.0141  0.0017 </r>
        <r>  0.0000  0.0096  0.0211  0.0067  0.0159  0.0209  0.0085  0.0647  0.0207 </r>
        <r>  0.0105  0.0025  0.0181  0.0058  0.0047  0.0087  0.0001  0.0511  0.0090 </r>
       </set>
       <set comment="band 31">
        <r>  0.0055  0.0067  0.0052  0.0007  0.0037  0.0192  0.0090  0.0120  0.0014 </r>
        <r>  0.0055  0.0002  0.0002  0.0009  0.0052  0.0511  0.0307  0.0391  0.0053 </r>
        <r>  0.0057  0.0040  0.0048  0.0035  0.0025  0.0038  0.0092  0.0263  0.0031 </r>
       </set>
       <set comment="band 32">
        <r>  0.0122  0.0000  0.0114  0.0015  0.0129  0.0242  0.0150  0.0287  0.0006 </r>
        <r>  0.0055  0.0040  0.0020  0.0027  0.0005  0.0180  0.0068  0.0258  0.0006 </r>
        <r>  0.0101  0.0012  0.0101  0.0005  0.0055  0.0233  0.0157  0.0306  0.0096 </r>
       </set>
      </set>
      <set comment="kpoint 17">
       <set comment="band 1">
        <r>  0.2464  0.0013  0.0004  0.0021  0.0000  0.0002  0.0001  0.0000  0.0002 </r>
        <r>  0.1929  0.0059  0.0003  0.0007  0.0000  0.0001  0.0001  0.0001  0.0000 </r>
        <r>  0.1929  0.0059  0.0003  0.0007  0.0000  0.0001  0.0001  0.0001  0.0000 </r>
       </set>
       <set comment="band 2">
        <r>  0.1082  0.0053  0.0077  0.0007  0.0001  0.0002  0.0000  0.0004  0.0001 </r>
        <r>  0.2779  0.0009  0.0031  0.0005  0.0000  0.0005  0.0000  0.0001  0.0002 </r>
        <r>  0.2779  0.0009  0.0031  0.0005  0.0000  0.0005  0.0000  0.0001  0.0002 </r>
       </set>
       <set comment="band 3">
        <r>  0.3233  0.0004  0.0008  0.0005  0.0000  0.0002  0.0000  0.0000  0.0001 </r>
        <r>  0.2000  0.0027  0.0059  0.0007  0.0000  0.0011  0.0000  0.0001  0.0003 </r>
        <r>  0.2000  0.0027  0.0059  0.0007  0.0000  0.0011  0.0000  0.0001  0.0003 </r>
       </set>
       <set comment="band 4">
        <r>  0.0048  0.0589  0.0549  0.0019  0.0000  0.0006  0.0003  0.0002  0.0000 </r>
        <r>  0.0050  0.0919  0.0423  0.0006  0.0000  0.0003  0.0005  0.0000  0.0001 </r>
        <r>  0.0050  0.0920  0.0423  0.0006  0.0000  0.0003  0.0005  0.0000  0.0001 </r>
       </set>
       <set comment="band 5">
        <r>  0.0002  0.0491  0.0875  0.0036  0.0004  0.0005  0.0002  0.0021  0.0000 </r>
        <r>  0.0029  0.0496  0.0969  0.0073  0.0001  0.0001  0.0001  0.0005  0.0002 </r>
        <r>  0.0029  0.0496  0.0969  0.0073  0.0001  0.0001  0.0001  0.0005  0.0002 </r>
       </set>
       <set comment="band 6">
        <r>  0.0042  0.0087  0.0001  0.1630  0.0001  0.0004  0.0004  0.0000  0.0000 </r>
        <r>  0.0013  0.0003  0.0066  0.1318  0.0003  0.0003  0.0001  0.0002  0.0001 </r>
        <r>  0.0013  0.0003  0.0066  0.1318  0.0003  0.0003  0.0001  0.0002  0.0001 </r>
       </set>
       <set comment="band 7">
        <r>  0.0004  0.1632  0.0196  0.0040  0.0001  0.0020  0.0006  0.0000  0.0016 </r>
        <r>  0.0179  0.0350  0.0651  0.0197  0.0000  0.0050  0.0007  0.0004  0.0003 </r>
        <r>  0.0179  0.0350  0.0651  0.0197  0.0000  0.0050  0.0007  0.0004  0.0003 </r>
       </set>
       <set comment="band 8">
        <r>  0.0107  0.0091  0.0046  0.1628  0.0001  0.0009  0.0005  0.0020  0.0023 </r>
        <r>  0.0062  0.0535  0.0181  0.0744  0.0004  0.0006  0.0013  0.0031  0.0003 </r>
        <r>  0.0062  0.0535  0.0182  0.0744  0.0004  0.0006  0.0013  0.0031  0.0003 </r>
       </set>
       <set comment="band 9">
        <r>  0.0096  0.0107  0.0836  0.0049  0.0006  0.0000  0.0000  0.0019  0.0024 </r>
        <r>  0.0146  0.0334  0.0351  0.1206  0.0002  0.0007  0.0001  0.0021  0.0015 </r>
        <r>  0.0146  0.0333  0.0351  0.1205  0.0002  0.0007  0.0001  0.0021  0.0015 </r>
       </set>
       <set comment="band 10">
        <r>  0.0217  0.0016  0.0690  0.0826  0.0012  0.0010  0.0012  0.0092  0.0003 </r>
        <r>  0.0076  0.0138  0.0294  0.0996  0.0006  0.0003  0.0009  0.0036  0.0046 </r>
        <r>  0.0076  0.0138  0.0294  0.0996  0.0006  0.0003  0.0009  0.0036  0.0046 </r>
       </set>
       <set comment="band 11">
        <r>  0.0275  0.0242  0.1175  0.0300  0.0010  0.0002  0.0001  0.0058  0.0037 </r>
        <r>  0.0162  0.0402  0.0769  0.0226  0.0001  0.0005  0.0001  0.0033  0.0032 </r>
        <r>  0.0162  0.0402  0.0769  0.0226  0.0001  0.0005  0.0001  0.0033  0.0032 </r>
       </set>
       <set comment="band 12">
        <r>  0.0045  0.1108  0.0308  0.0030  0.0002  0.0059  0.0002  0.0001  0.0015 </r>
        <r>  0.0126  0.1197  0.0998  0.0008  0.0000  0.0056  0.0003  0.0002  0.0012 </r>
        <r>  0.0126  0.1197  0.0998  0.0008  0.0000  0.0056  0.0003  0.0002  0.0012 </r>
       </set>
       <set comment="band 13">
        <r>  0.0001  0.0005  0.0016  0.0228  0.0005  0.0086  0.0142  0.0001  0.0157 </r>
        <r>  0.0014  0.0010  0.0023  0.0074  0.0006  0.0057  0.0102  0.0052  0.0218 </r>
        <r>  0.0014  0.0010  0.0023  0.0074  0.0006  0.0057  0.0102  0.0052  0.0218 </r>
       </set>
       <set comment="band 14">
        <r>  0.0013  0.0160  0.0126  0.0022  0.0031  0.0095  0.0138  0.0000  0.0117 </r>
        <r>  0.0025  0.0453  0.0008  0.0004  0.0013  0.0043  0.0258  0.0023  0.0112 </r>
        <r>  0.0025  0.0453  0.0008  0.0004  0.0013  0.0043  0.0258  0.0023  0.0112 </r>
       </set>
       <set comment="band 15">
        <r>  0.0010  0.0021  0.0000  0.0004  0.0309  0.0003  0.0125  0.0207  0.0026 </r>
        <r>  0.0014  0.0010  0.0016  0.0028  0.0569  0.0042  0.0052  0.0116  0.0026 </r>
        <r>  0.0014  0.0010  0.0016  0.0028  0.0569  0.0042  0.0052  0.0116  0.0026 </r>
       </set>
       <set comment="band 16">
        <r>  0.0023  0.0750  0.0162  0.0090  0.0006  0.0000  0.0462  0.0323  0.0007 </r>
        <r>  0.0018  0.0094  0.0131  0.0081  0.0004  0.0105  0.0060  0.0188  0.0121 </r>
        <r>  0.0018  0.0094  0.0131  0.0081  0.0004  0.0105  0.0060  0.0188  0.0121 </r>
       </set>
       <set comment="band 17">
        <r>  0.0002  0.0121  0.0015  0.0337  0.0720  0.0072  0.0024  0.0020  0.0308 </r>
        <r>  0.0017  0.0043  0.0227  0.0157  0.0143  0.0066  0.0035  0.0358  0.0042 </r>
        <r>  0.0017  0.0043  0.0227  0.0157  0.0143  0.0066  0.0035  0.0358  0.0042 </r>
       </set>
       <set comment="band 18">
        <r>  0.0001  0.0060  0.0021  0.0075  0.0010  0.0302  0.0066  0.0336  0.0068 </r>
        <r>  0.0024  0.0402  0.0047  0.0145  0.0163  0.0015  0.0407  0.0207  0.0047 </r>
        <r>  0.0024  0.0402  0.0047  0.0145  0.0163  0.0015  0.0407  0.0207  0.0047 </r>
       </set>
       <set comment="band 19">
        <r>  0.0003  0.0078  0.0386  0.0058  0.0004  0.0001  0.0159  0.0152  0.0010 </r>
        <r>  0.0016  0.0227  0.0122  0.0156  0.0321  0.0108  0.0098  0.0215  0.0277 </r>
        <r>  0.0016  0.0227  0.0122  0.0156  0.0321  0.0108  0.0098  0.0215  0.0277 </r>
       </set>
       <set comment="band 20">
        <r>  0.0054  0.0169  0.0030  0.0063  0.0429  0.0000  0.0054  0.0056  0.0074 </r>
        <r>  0.0008  0.0266  0.0106  0.0040  0.0076  0.0029  0.0620  0.0157  0.0013 </r>
        <r>  0.0008  0.0266  0.0106  0.0040  0.0076  0.0029  0.0620  0.0157  0.0013 </r>
       </set>
       <set comment="band 21">
        <r>  0.0002  0.0138  0.0010  0.0003  0.0514  0.0403  0.0026  0.0180  0.0311 </r>
        <r>  0.0065  0.0009  0.0094  0.0130  0.0882  0.0056  0.0016  0.0126  0.0012 </r>
        <r>  0.0065  0.0009  0.0094  0.0130  0.0882  0.0056  0.0016  0.0126  0.0012 </r>
       </set>
       <set comment="band 22">
        <r>  0.0007  0.0001  0.0281  0.0019  0.0052  0.0489  0.0003  0.0300  0.0113 </r>
        <r>  0.0180  0.0072  0.0104  0.0052  0.0093  0.0614  0.0091  0.0060  0.0050 </r>
        <r>  0.0180  0.0072  0.0104  0.0052  0.0093  0.0614  0.0091  0.0060  0.0050 </r>
       </set>
       <set comment="band 23">
        <r>  0.0004  0.0055  0.0019  0.0030  0.0149  0.0317  0.0197  0.0020  0.0190 </r>
        <r>  0.0045  0.0041  0.0222  0.0114  0.0032  0.0352  0.0234  0.0322  0.0050 </r>
        <r>  0.0045  0.0041  0.0222  0.0114  0.0032  0.0352  0.0234  0.0322  0.0050 </r>
       </set>
       <set comment="band 24">
        <r>  0.0024  0.0002  0.0003  0.0315  0.0699  0.0006  0.0218  0.0435  0.0072 </r>
        <r>  0.0007  0.0009  0.0100  0.0056  0.0345  0.0228  0.0061  0.0307  0.0104 </r>
        <r>  0.0007  0.0009  0.0100  0.0056  0.0345  0.0228  0.0061  0.0307  0.0104 </r>
       </set>
       <set comment="band 25">
        <r>  0.0430  0.0109  0.0000  0.0016  0.0015  0.0230  0.0199  0.0082  0.0146 </r>
        <r>  0.0042  0.0076  0.0152  0.0059  0.0095  0.0622  0.0209  0.0231  0.0244 </r>
        <r>  0.0042  0.0076  0.0152  0.0059  0.0095  0.0622  0.0209  0.0231  0.0244 </r>
       </set>
       <set comment="band 26">
        <r>  0.0001  0.0140  0.0022  0.0021  0.0020  0.0152  0.0247  0.0006  0.0362 </r>
        <r>  0.0250  0.0083  0.0033  0.0007  0.0108  0.0561  0.0062  0.0046  0.0313 </r>
        <r>  0.0250  0.0083  0.0033  0.0007  0.0108  0.0561  0.0062  0.0046  0.0313 </r>
       </set>
       <set comment="band 27">
        <r>  0.0156  0.0054  0.0106  0.0013  0.0031  0.0818  0.0459  0.0007  0.0000 </r>
        <r>  0.0214  0.0008  0.0055  0.0000  0.0132  0.0175  0.0161  0.0009  0.0067 </r>
        <r>  0.0214  0.0008  0.0055  0.0000  0.0132  0.0175  0.0161  0.0009  0.0067 </r>
       </set>
       <set comment="band 28">
        <r>  0.0144  0.0030  0.0197  0.0032  0.0026  0.0014  0.0000  0.0080  0.0022 </r>
        <r>  0.0116  0.0038  0.0001  0.0017  0.0016  0.0035  0.0091  0.0062  0.0459 </r>
        <r>  0.0116  0.0038  0.0001  0.0017  0.0016  0.0035  0.0091  0.0062  0.0459 </r>
       </set>
       <set comment="band 29">
        <r>  0.0035  0.0108  0.0026  0.0043  0.0029  0.0485  0.0951  0.0017  0.0725 </r>
        <r>  0.0019  0.0038  0.0012  0.0010  0.0097  0.0168  0.0141  0.0065  0.0202 </r>
        <r>  0.0019  0.0038  0.0012  0.0010  0.0097  0.0168  0.0141  0.0066  0.0201 </r>
       </set>
       <set comment="band 30">
        <r>  0.0023  0.0028  0.0014  0.0002  0.0284  0.0020  0.0008  0.0173  0.0118 </r>
        <r>  0.0021  0.0104  0.0004  0.0014  0.0094  0.0013  0.0382  0.0158  0.0208 </r>
        <r>  0.0021  0.0104  0.0004  0.0014  0.0092  0.0013  0.0382  0.0157  0.0209 </r>
       </set>
       <set comment="band 31">
        <r>  0.0044  0.0002  0.0013  0.0009  0.0388  0.0003  0.0013  0.0459  0.0093 </r>
        <r>  0.0002  0.0021  0.0000  0.0039  0.0450  0.0092  0.0267  0.0033  0.0263 </r>
        <r>  0.0002  0.0022  0.0000  0.0039  0.0456  0.0092  0.0263  0.0034  0.0262 </r>
       </set>
       <set comment="band 32">
        <r>  0.0003  0.0023  0.0001  0.0067  0.0350  0.0007  0.0137  0.0078  0.0059 </r>
        <r>  0.0028  0.0052  0.0007  0.0082  0.0621  0.0000  0.0268  0.0269  0.0243 </r>
        <r>  0.0028  0.0050  0.0007  0.0081  0.0616  0.0000  0.0273  0.0266  0.0245 </r>
       </set>
      </set>
      <set comment="kpoint 18">
       <set comment="band 1">
        <r>  0.1833  0.0003  0.0004  0.0077  0.0000  0.0001  0.0001  0.0001  0.0000 </r>
        <r>  0.2797  0.0021  0.0002  0.0007  0.0002  0.0001  0.0001  0.0003  0.0001 </r>
        <r>  0.1833  0.0045  0.0004  0.0035  0.0000  0.0001  0.0001  0.0001  0.0000 </r>
       </set>
       <set comment="band 2">
        <r>  0.3146  0.0013  0.0012  0.0011  0.0002  0.0000  0.0000  0.0005  0.0000 </r>
        <r>  0.0240  0.0025  0.0070  0.0074  0.0000  0.0004  0.0000  0.0001  0.0001 </r>
        <r>  0.3146  0.0001  0.0012  0.0022  0.0001  0.0003  0.0000  0.0003  0.0001 </r>
       </set>
       <set comment="band 3">
        <r>  0.1690  0.0013  0.0054  0.0022  0.0003  0.0001  0.0000  0.0011  0.0000 </r>
        <r>  0.3758  0.0003  0.0000  0.0004  0.0000  0.0000  0.0000  0.0001  0.0000 </r>
        <r>  0.1690  0.0013  0.0054  0.0022  0.0002  0.0006  0.0000  0.0006  0.0002 </r>
       </set>
       <set comment="band 4">
        <r>  0.0112  0.0169  0.0428  0.0722  0.0000  0.0000  0.0003  0.0009  0.0001 </r>
        <r>  0.0031  0.0177  0.0839  0.0254  0.0003  0.0008  0.0001  0.0011  0.0001 </r>
        <r>  0.0112  0.0297  0.0428  0.0594  0.0000  0.0006  0.0003  0.0003  0.0001 </r>
       </set>
       <set comment="band 5">
        <r>  0.0017  0.0283  0.0946  0.0418  0.0004  0.0002  0.0001  0.0009  0.0001 </r>
        <r>  0.0016  0.0145  0.0631  0.0329  0.0001  0.0014  0.0001  0.0013  0.0003 </r>
        <r>  0.0017  0.0169  0.0946  0.0532  0.0002  0.0006  0.0001  0.0005  0.0002 </r>
       </set>
       <set comment="band 6">
        <r>  0.0017  0.0803  0.0092  0.0433  0.0000  0.0004  0.0002  0.0001  0.0003 </r>
        <r>  0.0060  0.1153  0.0025  0.0545  0.0000  0.0001  0.0004  0.0001  0.0000 </r>
        <r>  0.0017  0.1036  0.0092  0.0200  0.0003  0.0001  0.0002  0.0005  0.0001 </r>
       </set>
       <set comment="band 7">
        <r>  0.0189  0.0031  0.0584  0.0495  0.0001  0.0008  0.0008  0.0025  0.0000 </r>
        <r>  0.0003  0.0413  0.0129  0.1236  0.0006  0.0004  0.0007  0.0012  0.0003 </r>
        <r>  0.0189  0.0416  0.0584  0.0110  0.0001  0.0009  0.0008  0.0024  0.0000 </r>
       </set>
       <set comment="band 8">
        <r>  0.0122  0.0863  0.0392  0.0121  0.0005  0.0007  0.0011  0.0025  0.0003 </r>
        <r>  0.0186  0.1080  0.0265  0.0440  0.0034  0.0003  0.0003  0.0005  0.0011 </r>
        <r>  0.0121  0.0038  0.0392  0.0948  0.0006  0.0033  0.0011  0.0000  0.0002 </r>
       </set>
       <set comment="band 9">
        <r>  0.0107  0.1534  0.0232  0.0106  0.0014  0.0022  0.0002  0.0016  0.0001 </r>
        <r>  0.0042  0.0258  0.0685  0.0121  0.0006  0.0026  0.0000  0.0009  0.0006 </r>
        <r>  0.0107  0.0773  0.0231  0.0865  0.0006  0.0033  0.0002  0.0005  0.0009 </r>
       </set>
       <set comment="band 10">
        <r>  0.0080  0.0659  0.0237  0.0527  0.0037  0.0022  0.0013  0.0015  0.0020 </r>
        <r>  0.0137  0.0628  0.0541  0.0241  0.0003  0.0087  0.0024  0.0041  0.0008 </r>
        <r>  0.0080  0.1055  0.0237  0.0130  0.0048  0.0028  0.0013  0.0010  0.0009 </r>
       </set>
       <set comment="band 11">
        <r>  0.0102  0.0002  0.0906  0.0558  0.0024  0.0044  0.0001  0.0006  0.0009 </r>
        <r>  0.0283  0.0278  0.1117  0.0228  0.0039  0.0037  0.0002  0.0013  0.0016 </r>
        <r>  0.0102  0.0421  0.0906  0.0140  0.0024  0.0024  0.0001  0.0025  0.0009 </r>
       </set>
       <set comment="band 12">
        <r>  0.0026  0.0100  0.0026  0.0067  0.0171  0.0102  0.0085  0.0013  0.0036 </r>
        <r>  0.0000  0.0188  0.0138  0.0063  0.0103  0.0026  0.0119  0.0069  0.0035 </r>
        <r>  0.0026  0.0124  0.0026  0.0043  0.0138  0.0004  0.0085  0.0111  0.0069 </r>
       </set>
       <set comment="band 13">
        <r>  0.0044  0.0242  0.1004  0.1071  0.0011  0.0005  0.0017  0.0025  0.0003 </r>
        <r>  0.0008  0.0367  0.0488  0.1070  0.0008  0.0005  0.0019  0.0009  0.0003 </r>
        <r>  0.0044  0.0427  0.1004  0.0886  0.0009  0.0012  0.0017  0.0018  0.0005 </r>
       </set>
       <set comment="band 14">
        <r>  0.0017  0.0152  0.0093  0.0626  0.0101  0.0115  0.0033  0.0040  0.0040 </r>
        <r>  0.0012  0.0088  0.0102  0.0057  0.0169  0.0120  0.0017  0.0170  0.0059 </r>
        <r>  0.0017  0.0259  0.0093  0.0519  0.0106  0.0073  0.0033  0.0082  0.0035 </r>
       </set>
       <set comment="band 15">
        <r>  0.0007  0.0100  0.0066  0.0154  0.0076  0.0013  0.0011  0.0344  0.0092 </r>
        <r>  0.0045  0.0190  0.0113  0.0502  0.0005  0.0257  0.0437  0.0099  0.0002 </r>
        <r>  0.0007  0.0107  0.0066  0.0147  0.0144  0.0319  0.0011  0.0037  0.0025 </r>
       </set>
       <set comment="band 16">
        <r>  0.0025  0.0017  0.0089  0.0221  0.0146  0.0051  0.0538  0.0035  0.0130 </r>
        <r>  0.0000  0.0184  0.0025  0.0242  0.0164  0.0020  0.0054  0.0039  0.0323 </r>
        <r>  0.0025  0.0128  0.0089  0.0110  0.0135  0.0074  0.0538  0.0013  0.0140 </r>
       </set>
       <set comment="band 17">
        <r>  0.0022  0.0147  0.0031  0.0015  0.0149  0.0067  0.0253  0.0025  0.0664 </r>
        <r>  0.0026  0.0085  0.0027  0.0121  0.0044  0.0119  0.0133  0.0051  0.0016 </r>
        <r>  0.0022  0.0015  0.0031  0.0147  0.0276  0.0065  0.0253  0.0027  0.0537 </r>
       </set>
       <set comment="band 18">
        <r>  0.0034  0.0168  0.0033  0.0035  0.0056  0.0297  0.0057  0.0021  0.0258 </r>
        <r>  0.0001  0.0038  0.0025  0.0077  0.0052  0.0254  0.0216  0.0117  0.0141 </r>
        <r>  0.0034  0.0127  0.0033  0.0076  0.0107  0.0073  0.0057  0.0245  0.0207 </r>
       </set>
       <set comment="band 19">
        <r>  0.0209  0.0068  0.0145  0.0148  0.0009  0.0078  0.0198  0.0016  0.0026 </r>
        <r>  0.0005  0.0036  0.0200  0.0049  0.0402  0.0122  0.0133  0.0332  0.0819 </r>
        <r>  0.0209  0.0090  0.0145  0.0126  0.0035  0.0010  0.0198  0.0084  0.0000 </r>
       </set>
       <set comment="band 20">
        <r>  0.0037  0.0190  0.0094  0.0050  0.0229  0.0421  0.0167  0.0148  0.0107 </r>
        <r>  0.0000  0.0089  0.0103  0.0031  0.0156  0.0170  0.0020  0.0086  0.0383 </r>
        <r>  0.0037  0.0124  0.0094  0.0116  0.0063  0.0431  0.0167  0.0138  0.0273 </r>
       </set>
       <set comment="band 21">
        <r>  0.0088  0.0083  0.0102  0.0010  0.0006  0.0411  0.0405  0.0276  0.0233 </r>
        <r>  0.0158  0.0217  0.0018  0.0156  0.0011  0.0081  0.0045  0.0169  0.0008 </r>
        <r>  0.0088  0.0009  0.0102  0.0084  0.0186  0.0055  0.0405  0.0632  0.0053 </r>
       </set>
       <set comment="band 22">
        <r>  0.0093  0.0142  0.0123  0.0054  0.0088  0.0061  0.0065  0.0816  0.0145 </r>
        <r>  0.0121  0.0013  0.0045  0.0025  0.0028  0.0360  0.0086  0.0201  0.0032 </r>
        <r>  0.0093  0.0107  0.0123  0.0090  0.0048  0.0670  0.0065  0.0207  0.0184 </r>
       </set>
       <set comment="band 23">
        <r>  0.0053  0.0016  0.0123  0.0015  0.0247  0.0011  0.0023  0.0173  0.0633 </r>
        <r>  0.0121  0.0066  0.0034  0.0030  0.0307  0.0081  0.0441  0.0162  0.0111 </r>
        <r>  0.0053  0.0019  0.0123  0.0012  0.0254  0.0156  0.0023  0.0029  0.0626 </r>
       </set>
       <set comment="band 24">
        <r>  0.0179  0.0012  0.0015  0.0036  0.0196  0.0167  0.0325  0.0328  0.0079 </r>
        <r>  0.0004  0.0080  0.0071  0.0027  0.0480  0.0019  0.0340  0.0047  0.0565 </r>
        <r>  0.0179  0.0047  0.0015  0.0001  0.0159  0.0340  0.0325  0.0155  0.0116 </r>
       </set>
       <set comment="band 25">
        <r>  0.0064  0.0143  0.0183  0.0129  0.0177  0.0524  0.0193  0.0241  0.0003 </r>
        <r>  0.0114  0.0009  0.0012  0.0015  0.0144  0.0120  0.0310  0.0347  0.0432 </r>
        <r>  0.0064  0.0181  0.0183  0.0091  0.0040  0.0281  0.0193  0.0485  0.0140 </r>
       </set>
       <set comment="band 26">
        <r>  0.0062  0.0015  0.0057  0.0025  0.0071  0.0085  0.0169  0.0157  0.0619 </r>
        <r>  0.0017  0.0137  0.0000  0.0227  0.0153  0.0220  0.0496  0.0195  0.0137 </r>
        <r>  0.0062  0.0006  0.0057  0.0034  0.0335  0.0049  0.0169  0.0193  0.0355 </r>
       </set>
       <set comment="band 27">
        <r>  0.0045  0.0022  0.0134  0.0023  0.0568  0.0264  0.0034  0.0018  0.0001 </r>
        <r>  0.0003  0.0041  0.0184  0.0059  0.0142  0.0283  0.0012  0.0799  0.0056 </r>
        <r>  0.0045  0.0038  0.0134  0.0006  0.0159  0.0029  0.0034  0.0253  0.0410 </r>
       </set>
       <set comment="band 28">
        <r>  0.0048  0.0028  0.0046  0.0043  0.0031  0.0029  0.0365  0.0322  0.0191 </r>
        <r>  0.0030  0.0075  0.0177  0.0031  0.0043  0.0028  0.0059  0.0063  0.0057 </r>
        <r>  0.0048  0.0027  0.0046  0.0045  0.0133  0.0170  0.0365  0.0181  0.0090 </r>
       </set>
       <set comment="band 29">
        <r>  0.0035  0.0082  0.0051  0.0079  0.0279  0.0054  0.0431  0.0000  0.0014 </r>
        <r>  0.0207  0.0008  0.0125  0.0021  0.0045  0.0184  0.0254  0.0112  0.0075 </r>
        <r>  0.0035  0.0031  0.0051  0.0131  0.0041  0.0015  0.0431  0.0039  0.0252 </r>
       </set>
       <set comment="band 30">
        <r>  0.0011  0.0020  0.0000  0.0034  0.0002  0.0171  0.0049  0.0050  0.0218 </r>
        <r>  0.0037  0.0034  0.0002  0.0053  0.0050  0.0505  0.0017  0.0171  0.0121 </r>
        <r>  0.0011  0.0043  0.0000  0.0011  0.0150  0.0125  0.0049  0.0096  0.0070 </r>
       </set>
       <set comment="band 31">
        <r>  0.0078  0.0082  0.0044  0.0106  0.0387  0.0083  0.0187  0.0191  0.0106 </r>
        <r>  0.0017  0.0079  0.0037  0.0164  0.0627  0.0023  0.0257  0.0010  0.0279 </r>
        <r>  0.0079  0.0027  0.0044  0.0159  0.0332  0.0154  0.0188  0.0125  0.0161 </r>
       </set>
       <set comment="band 32">
        <r>  0.0055  0.0033  0.0010  0.0095  0.0404  0.0024  0.0018  0.0078  0.0130 </r>
        <r>  0.0045  0.0008  0.0127  0.0023  0.0010  0.0081  0.0071  0.0060  0.0039 </r>
        <r>  0.0052  0.0032  0.0011  0.0106  0.0354  0.0049  0.0017  0.0039  0.0170 </r>
       </set>
      </set>
      <set comment="kpoint 19">
       <set comment="band 1">
        <r>  0.2079  0.0008  0.0004  0.0021  0.0000  0.0001  0.0000  0.0000  0.0001 </r>
        <r>  0.2098  0.0023  0.0002  0.0004  0.0001  0.0000  0.0000  0.0001  0.0000 </r>
        <r>  0.1973  0.0027  0.0003  0.0009  0.0000  0.0001  0.0000  0.0001  0.0000 </r>
       </set>
       <set comment="band 2">
        <r>  0.2105  0.0010  0.0103  0.0007  0.0001  0.0002  0.0000  0.0004  0.0001 </r>
        <r>  0.1960  0.0002  0.0102  0.0012  0.0000  0.0004  0.0000  0.0001  0.0001 </r>
        <r>  0.2530  0.0000  0.0083  0.0006  0.0001  0.0004  0.0000  0.0002  0.0001 </r>
       </set>
       <set comment="band 3">
        <r>  0.2409  0.0004  0.0071  0.0013  0.0001  0.0001  0.0000  0.0002  0.0001 </r>
        <r>  0.2572  0.0015  0.0079  0.0014  0.0000  0.0004  0.0000  0.0001  0.0001 </r>
        <r>  0.2088  0.0017  0.0095  0.0007  0.0001  0.0005  0.0000  0.0001  0.0002 </r>
       </set>
       <set comment="band 4">
        <r>  0.0078  0.0532  0.0476  0.0285  0.0001  0.0001  0.0009  0.0004  0.0002 </r>
        <r>  0.0014  0.0339  0.0880  0.0085  0.0003  0.0003  0.0003  0.0001  0.0004 </r>
        <r>  0.0065  0.1166  0.0142  0.0298  0.0003  0.0004  0.0011  0.0004  0.0004 </r>
       </set>
       <set comment="band 5">
        <r>  0.0118  0.0470  0.0662  0.0269  0.0002  0.0001  0.0003  0.0015  0.0003 </r>
        <r>  0.0130  0.1142  0.0122  0.0020  0.0000  0.0004  0.0009  0.0004  0.0004 </r>
        <r>  0.0010  0.0151  0.1180  0.0391  0.0001  0.0004  0.0002  0.0004  0.0003 </r>
       </set>
       <set comment="band 6">
        <r>  0.0074  0.0374  0.0344  0.1550  0.0005  0.0008  0.0002  0.0011  0.0001 </r>
        <r>  0.0057  0.0111  0.0419  0.1589  0.0010  0.0011  0.0001  0.0015  0.0001 </r>
        <r>  0.0251  0.0158  0.0012  0.0196  0.0008  0.0001  0.0000  0.0000  0.0001 </r>
       </set>
       <set comment="band 7">
        <r>  0.0212  0.0070  0.0287  0.0210  0.0007  0.0004  0.0008  0.0011  0.0014 </r>
        <r>  0.0134  0.0206  0.0413  0.0015  0.0020  0.0000  0.0007  0.0015  0.0000 </r>
        <r>  0.0051  0.0313  0.0591  0.2450  0.0002  0.0004  0.0001  0.0004  0.0006 </r>
       </set>
       <set comment="band 8">
        <r>  0.0085  0.0032  0.0214  0.0666  0.0009  0.0003  0.0001  0.0022  0.0016 </r>
        <r>  0.0091  0.0443  0.0285  0.1748  0.0001  0.0009  0.0000  0.0002  0.0008 </r>
        <r>  0.0074  0.0474  0.0525  0.0169  0.0012  0.0011  0.0004  0.0033  0.0001 </r>
       </set>
       <set comment="band 9">
        <r>  0.0012  0.2708  0.0723  0.0017  0.0001  0.0000  0.0001  0.0001  0.0001 </r>
        <r>  0.0082  0.0769  0.0330  0.0051  0.0004  0.0028  0.0005  0.0004  0.0016 </r>
        <r>  0.0199  0.0465  0.0118  0.0054  0.0000  0.0052  0.0010  0.0001  0.0012 </r>
       </set>
       <set comment="band 10">
        <r>  0.0184  0.0083  0.0246  0.0161  0.0011  0.0027  0.0006  0.0024  0.0005 </r>
        <r>  0.0228  0.1047  0.0513  0.0430  0.0001  0.0036  0.0012  0.0006  0.0009 </r>
        <r>  0.0137  0.1888  0.0280  0.0029  0.0002  0.0032  0.0002  0.0006  0.0007 </r>
       </set>
       <set comment="band 11">
        <r>  0.0182  0.0101  0.0280  0.1452  0.0004  0.0028  0.0006  0.0008  0.0028 </r>
        <r>  0.0156  0.0576  0.1097  0.0002  0.0005  0.0003  0.0014  0.0047  0.0008 </r>
        <r>  0.0107  0.0139  0.0407  0.0978  0.0001  0.0007  0.0004  0.0023  0.0009 </r>
       </set>
       <set comment="band 12">
        <r>  0.0007  0.0326  0.1298  0.0235  0.0042  0.0017  0.0002  0.0044  0.0014 </r>
        <r>  0.0057  0.0137  0.0553  0.0871  0.0011  0.0041  0.0002  0.0011  0.0034 </r>
        <r>  0.0027  0.0010  0.1253  0.0358  0.0028  0.0014  0.0005  0.0004  0.0050 </r>
       </set>
       <set comment="band 13">
        <r>  0.0007  0.0008  0.0041  0.0091  0.0030  0.0101  0.0173  0.0009  0.0157 </r>
        <r>  0.0000  0.0002  0.0004  0.0176  0.0005  0.0053  0.0192  0.0025  0.0188 </r>
        <r>  0.0022  0.0066  0.0091  0.0032  0.0019  0.0047  0.0184  0.0035  0.0153 </r>
       </set>
       <set comment="band 14">
        <r>  0.0013  0.0147  0.0140  0.0004  0.0073  0.0010  0.0209  0.0092  0.0073 </r>
        <r>  0.0014  0.0046  0.0119  0.0024  0.0103  0.0085  0.0145  0.0047  0.0066 </r>
        <r>  0.0039  0.0006  0.0081  0.0027  0.0175  0.0026  0.0155  0.0044  0.0103 </r>
       </set>
       <set comment="band 15">
        <r>  0.0123  0.0071  0.0090  0.0018  0.0157  0.0030  0.0150  0.0084  0.0238 </r>
        <r>  0.0085  0.0011  0.0067  0.0019  0.0100  0.0146  0.0157  0.0028  0.0206 </r>
        <r>  0.0054  0.0066  0.0022  0.0036  0.0001  0.0179  0.0252  0.0232  0.0088 </r>
       </set>
       <set comment="band 16">
        <r>  0.0073  0.0085  0.0016  0.0033  0.0082  0.0312  0.0003  0.0207  0.0081 </r>
        <r>  0.0044  0.0023  0.0080  0.0063  0.0321  0.0215  0.0045  0.0262  0.0039 </r>
        <r>  0.0088  0.0029  0.0079  0.0084  0.0308  0.0102  0.0039  0.0132  0.0102 </r>
       </set>
       <set comment="band 17">
        <r>  0.0130  0.0090  0.0035  0.0109  0.0218  0.0060  0.0171  0.0053  0.0017 </r>
        <r>  0.0134  0.0223  0.0053  0.0011  0.0147  0.0018  0.0040  0.0234  0.0072 </r>
        <r>  0.0168  0.0023  0.0061  0.0036  0.0166  0.0025  0.0118  0.0214  0.0182 </r>
       </set>
       <set comment="band 18">
        <r>  0.0004  0.0031  0.0233  0.0016  0.0295  0.0014  0.0142  0.0255  0.0088 </r>
        <r>  0.0024  0.0032  0.0077  0.0003  0.0189  0.0085  0.0249  0.0073  0.0044 </r>
        <r>  0.0009  0.0006  0.0092  0.0034  0.0347  0.0146  0.0003  0.0199  0.0045 </r>
       </set>
       <set comment="band 19">
        <r>  0.0102  0.0203  0.0001  0.0091  0.0157  0.0332  0.0040  0.0119  0.0089 </r>
        <r>  0.0139  0.0217  0.0019  0.0138  0.0277  0.0066  0.0051  0.0016  0.0067 </r>
        <r>  0.0084  0.0414  0.0033  0.0032  0.0041  0.0066  0.0058  0.0098  0.0167 </r>
       </set>
       <set comment="band 20">
        <r>  0.0006  0.0069  0.0163  0.0096  0.0106  0.0193  0.0102  0.0053  0.0273 </r>
        <r>  0.0034  0.0020  0.0103  0.0063  0.0041  0.0041  0.0103  0.0352  0.0440 </r>
        <r>  0.0005  0.0115  0.0447  0.0064  0.0036  0.0323  0.0105  0.0003  0.0081 </r>
       </set>
       <set comment="band 21">
        <r>  0.0006  0.0086  0.0155  0.0104  0.0184  0.0002  0.0048  0.0054  0.0033 </r>
        <r>  0.0011  0.0015  0.0142  0.0021  0.0089  0.0411  0.0158  0.0469  0.0175 </r>
        <r>  0.0021  0.0004  0.0009  0.0186  0.0148  0.0182  0.0233  0.0056  0.0368 </r>
       </set>
       <set comment="band 22">
        <r>  0.0033  0.0046  0.0054  0.0000  0.0095  0.0274  0.0108  0.0355  0.0334 </r>
        <r>  0.0004  0.0137  0.0077  0.0155  0.0063  0.0010  0.0014  0.0011  0.0070 </r>
        <r>  0.0053  0.0011  0.0008  0.0035  0.0114  0.0133  0.0006  0.0409  0.0016 </r>
       </set>
       <set comment="band 23">
        <r>  0.0133  0.0000  0.0051  0.0109  0.0245  0.0139  0.0127  0.0512  0.0026 </r>
        <r>  0.0033  0.0010  0.0036  0.0070  0.0212  0.0032  0.0018  0.0237  0.0046 </r>
        <r>  0.0186  0.0010  0.0083  0.0068  0.0213  0.0292  0.0288  0.0471  0.0024 </r>
       </set>
       <set comment="band 24">
        <r>  0.0017  0.0152  0.0038  0.0023  0.0096  0.0089  0.0201  0.0239  0.0120 </r>
        <r>  0.0018  0.0007  0.0177  0.0048  0.0141  0.0743  0.0002  0.0047  0.0213 </r>
        <r>  0.0027  0.0068  0.0054  0.0053  0.0120  0.0318  0.0077  0.0081  0.0285 </r>
       </set>
       <set comment="band 25">
        <r>  0.0053  0.0007  0.0075  0.0009  0.0005  0.0415  0.0186  0.0006  0.0204 </r>
        <r>  0.0092  0.0049  0.0085  0.0014  0.0006  0.0188  0.0788  0.0087  0.0002 </r>
        <r>  0.0001  0.0016  0.0003  0.0046  0.0049  0.0050  0.0309  0.0113  0.0119 </r>
       </set>
       <set comment="band 26">
        <r>  0.0049  0.0075  0.0049  0.0055  0.0467  0.0161  0.0272  0.0005  0.0207 </r>
        <r>  0.0026  0.0121  0.0018  0.0013  0.0442  0.0043  0.0324  0.0006  0.0218 </r>
        <r>  0.0051  0.0203  0.0027  0.0013  0.0370  0.0015  0.0186  0.0188  0.0308 </r>
       </set>
       <set comment="band 27">
        <r>  0.0035  0.0134  0.0032  0.0031  0.0055  0.0474  0.0298  0.0120  0.0366 </r>
        <r>  0.0113  0.0306  0.0128  0.0058  0.0012  0.0446  0.0037  0.0103  0.0252 </r>
        <r>  0.0023  0.0051  0.0342  0.0002  0.0059  0.1171  0.0446  0.0004  0.0357 </r>
       </set>
       <set comment="band 28">
        <r>  0.0068  0.0052  0.0184  0.0208  0.0049  0.0284  0.0521  0.0351  0.0058 </r>
        <r>  0.0011  0.0002  0.0096  0.0164  0.0203  0.0599  0.0017  0.0540  0.0277 </r>
        <r>  0.0086  0.0101  0.0065  0.0107  0.0205  0.0067  0.0369  0.0248  0.0027 </r>
       </set>
       <set comment="band 29">
        <r>  0.0013  0.0081  0.0149  0.0057  0.0334  0.0321  0.0037  0.0340  0.0088 </r>
        <r>  0.0049  0.0120  0.0124  0.0016  0.0294  0.0404  0.0275  0.0096  0.0027 </r>
        <r>  0.0055  0.0050  0.0033  0.0013  0.0392  0.0175  0.0049  0.0192  0.0064 </r>
       </set>
       <set comment="band 30">
        <r>  0.0050  0.0016  0.0058  0.0088  0.0262  0.0418  0.0776  0.0315  0.0145 </r>
        <r>  0.0025  0.0005  0.0044  0.0058  0.0582  0.0033  0.0514  0.0556  0.0266 </r>
        <r>  0.0013  0.0087  0.0000  0.0123  0.0543  0.0021  0.0403  0.0186  0.0252 </r>
       </set>
       <set comment="band 31">
        <r>  0.0005  0.0074  0.0005  0.0120  0.0135  0.0252  0.0083  0.0040  0.0774 </r>
        <r>  0.0013  0.0127  0.0073  0.0035  0.0039  0.0126  0.0739  0.0005  0.0332 </r>
        <r>  0.0001  0.0130  0.0115  0.0026  0.0062  0.0541  0.0226  0.0028  0.0134 </r>
       </set>
       <set comment="band 32">
        <r>  0.0182  0.0069  0.0055  0.0166  0.0376  0.0019  0.0346  0.0509  0.0016 </r>
        <r>  0.0011  0.0003  0.0193  0.0034  0.0402  0.0093  0.0131  0.0433  0.0201 </r>
        <r>  0.0068  0.0103  0.0012  0.0214  0.0157  0.0258  0.0239  0.0416  0.0165 </r>
       </set>
      </set>
      <set comment="kpoint 20">
       <set comment="band 1">
        <r>  0.2078  0.0010  0.0004  0.0038  0.0000  0.0001  0.0001  0.0001  0.0001 </r>
        <r>  0.2287  0.0028  0.0002  0.0006  0.0001  0.0001  0.0001  0.0002  0.0000 </r>
        <r>  0.1905  0.0039  0.0003  0.0018  0.0000  0.0001  0.0001  0.0001  0.0000 </r>
       </set>
       <set comment="band 2">
        <r>  0.2349  0.0016  0.0062  0.0012  0.0002  0.0002  0.0000  0.0006  0.0001 </r>
        <r>  0.1200  0.0008  0.0092  0.0034  0.0000  0.0005  0.0000  0.0001  0.0002 </r>
        <r>  0.3198  0.0000  0.0042  0.0010  0.0001  0.0004  0.0000  0.0003  0.0001 </r>
       </set>
       <set comment="band 3">
        <r>  0.2212  0.0004  0.0052  0.0029  0.0001  0.0001  0.0000  0.0003  0.0001 </r>
        <r>  0.3220  0.0019  0.0026  0.0022  0.0000  0.0002  0.0000  0.0001  0.0001 </r>
        <r>  0.1512  0.0019  0.0068  0.0026  0.0001  0.0007  0.0000  0.0002  0.0003 </r>
       </set>
       <set comment="band 4">
        <r>  0.0043  0.0642  0.0277  0.0356  0.0002  0.0001  0.0008  0.0003  0.0000 </r>
        <r>  0.0039  0.0277  0.1002  0.0056  0.0003  0.0010  0.0001  0.0001  0.0004 </r>
        <r>  0.0009  0.0837  0.0532  0.0194  0.0003  0.0007  0.0006  0.0003  0.0003 </r>
       </set>
       <set comment="band 5">
        <r>  0.0080  0.0273  0.1027  0.0193  0.0002  0.0001  0.0001  0.0027  0.0001 </r>
        <r>  0.0030  0.0901  0.0139  0.0001  0.0003  0.0003  0.0007  0.0013  0.0003 </r>
        <r>  0.0017  0.0358  0.0840  0.0634  0.0002  0.0002  0.0004  0.0007  0.0001 </r>
       </set>
       <set comment="band 6">
        <r>  0.0010  0.0415  0.0428  0.1277  0.0004  0.0007  0.0002  0.0015  0.0003 </r>
        <r>  0.0030  0.0335  0.0193  0.1345  0.0008  0.0008  0.0005  0.0022  0.0000 </r>
        <r>  0.0420  0.0205  0.0025  0.0039  0.0001  0.0007  0.0003  0.0005  0.0001 </r>
       </set>
       <set comment="band 7">
        <r>  0.0228  0.0169  0.0270  0.0829  0.0001  0.0006  0.0004  0.0007  0.0010 </r>
        <r>  0.0116  0.0480  0.0440  0.1368  0.0000  0.0008  0.0000  0.0003  0.0006 </r>
        <r>  0.0010  0.0245  0.0333  0.0111  0.0011  0.0004  0.0003  0.0032  0.0001 </r>
       </set>
       <set comment="band 8">
        <r>  0.0205  0.0024  0.0116  0.0014  0.0010  0.0013  0.0003  0.0017  0.0003 </r>
        <r>  0.0152  0.0077  0.0366  0.0234  0.0015  0.0006  0.0002  0.0006  0.0001 </r>
        <r>  0.0013  0.0517  0.0749  0.2263  0.0003  0.0001  0.0000  0.0000  0.0006 </r>
       </set>
       <set comment="band 9">
        <r>  0.0001  0.2457  0.0621  0.0006  0.0004  0.0003  0.0002  0.0002  0.0001 </r>
        <r>  0.0096  0.0970  0.0359  0.0102  0.0009  0.0024  0.0005  0.0007  0.0013 </r>
        <r>  0.0185  0.0386  0.0104  0.0005  0.0000  0.0072  0.0012  0.0001  0.0008 </r>
       </set>
       <set comment="band 10">
        <r>  0.0163  0.0129  0.0183  0.0062  0.0032  0.0056  0.0003  0.0005  0.0015 </r>
        <r>  0.0239  0.0942  0.0719  0.0082  0.0003  0.0066  0.0011  0.0001  0.0019 </r>
        <r>  0.0097  0.1753  0.0708  0.0040  0.0001  0.0030  0.0003  0.0001  0.0006 </r>
       </set>
       <set comment="band 11">
        <r>  0.0040  0.0170  0.0820  0.1197  0.0004  0.0020  0.0017  0.0012  0.0011 </r>
        <r>  0.0050  0.0303  0.1188  0.0493  0.0015  0.0015  0.0020  0.0050  0.0007 </r>
        <r>  0.0009  0.0078  0.0504  0.0491  0.0025  0.0004  0.0005  0.0008  0.0052 </r>
       </set>
       <set comment="band 12">
        <r>  0.0079  0.0252  0.1090  0.0845  0.0015  0.0007  0.0009  0.0027  0.0033 </r>
        <r>  0.0083  0.0335  0.0355  0.1026  0.0006  0.0007  0.0010  0.0006  0.0033 </r>
        <r>  0.0048  0.0289  0.0856  0.0915  0.0021  0.0007  0.0001  0.0021  0.0004 </r>
       </set>
       <set comment="band 13">
        <r>  0.0007  0.0180  0.0023  0.0077  0.0142  0.0073  0.0076  0.0066  0.0114 </r>
        <r>  0.0001  0.0095  0.0075  0.0113  0.0117  0.0055  0.0148  0.0030  0.0024 </r>
        <r>  0.0039  0.0025  0.0051  0.0103  0.0151  0.0016  0.0131  0.0076  0.0030 </r>
       </set>
       <set comment="band 14">
        <r>  0.0026  0.0045  0.0007  0.0108  0.0019  0.0043  0.0218  0.0002  0.0133 </r>
        <r>  0.0000  0.0025  0.0056  0.0233  0.0005  0.0077  0.0109  0.0043  0.0210 </r>
        <r>  0.0026  0.0110  0.0108  0.0270  0.0030  0.0043  0.0109  0.0038  0.0225 </r>
       </set>
       <set comment="band 15">
        <r>  0.0081  0.0006  0.0036  0.0032  0.0075  0.0144  0.0079  0.0417  0.0050 </r>
        <r>  0.0131  0.0013  0.0051  0.0032  0.0193  0.0211  0.0073  0.0223  0.0146 </r>
        <r>  0.0177  0.0028  0.0042  0.0005  0.0221  0.0195  0.0177  0.0196  0.0037 </r>
       </set>
       <set comment="band 16">
        <r>  0.0090  0.0238  0.0008  0.0055  0.0334  0.0109  0.0028  0.0001  0.0161 </r>
        <r>  0.0077  0.0079  0.0053  0.0021  0.0244  0.0106  0.0071  0.0163  0.0046 </r>
        <r>  0.0040  0.0183  0.0156  0.0128  0.0105  0.0060  0.0016  0.0297  0.0071 </r>
       </set>
       <set comment="band 17">
        <r>  0.0085  0.0030  0.0073  0.0142  0.0120  0.0081  0.0316  0.0004  0.0023 </r>
        <r>  0.0057  0.0163  0.0057  0.0034  0.0082  0.0011  0.0184  0.0155  0.0110 </r>
        <r>  0.0043  0.0011  0.0065  0.0043  0.0167  0.0034  0.0282  0.0069  0.0306 </r>
       </set>
       <set comment="band 18">
        <r>  0.0007  0.0394  0.0099  0.0076  0.0071  0.0354  0.0026  0.0070  0.0173 </r>
        <r>  0.0088  0.0227  0.0097  0.0042  0.0061  0.0120  0.0262  0.0057  0.0171 </r>
        <r>  0.0015  0.0280  0.0013  0.0003  0.0238  0.0268  0.0109  0.0217  0.0094 </r>
       </set>
       <set comment="band 19">
        <r>  0.0062  0.0033  0.0304  0.0120  0.0097  0.0053  0.0110  0.0406  0.0328 </r>
        <r>  0.0056  0.0076  0.0009  0.0071  0.0195  0.0122  0.0121  0.0475  0.0204 </r>
        <r>  0.0101  0.0178  0.0206  0.0060  0.0027  0.0058  0.0028  0.0060  0.0087 </r>
       </set>
       <set comment="band 20">
        <r>  0.0112  0.0029  0.0062  0.0005  0.0260  0.0175  0.0198  0.0256  0.0034 </r>
        <r>  0.0015  0.0261  0.0018  0.0058  0.0317  0.0083  0.0081  0.0149  0.0147 </r>
        <r>  0.0128  0.0127  0.0183  0.0008  0.0238  0.0028  0.0073  0.0179  0.0054 </r>
       </set>
       <set comment="band 21">
        <r>  0.0108  0.0006  0.0006  0.0090  0.0066  0.0109  0.0222  0.0321  0.0238 </r>
        <r>  0.0015  0.0009  0.0087  0.0138  0.0071  0.0182  0.0304  0.0228  0.0157 </r>
        <r>  0.0058  0.0055  0.0075  0.0020  0.0081  0.0751  0.0679  0.0213  0.0019 </r>
       </set>
       <set comment="band 22">
        <r>  0.0068  0.0147  0.0085  0.0019  0.0096  0.0225  0.0284  0.0059  0.0079 </r>
        <r>  0.0061  0.0035  0.0014  0.0011  0.0290  0.0074  0.0218  0.0018  0.0237 </r>
        <r>  0.0088  0.0090  0.0007  0.0071  0.0219  0.0027  0.0065  0.0287  0.0466 </r>
       </set>
       <set comment="band 23">
        <r>  0.0011  0.0163  0.0128  0.0001  0.0250  0.0080  0.0220  0.0009  0.0617 </r>
        <r>  0.0022  0.0056  0.0356  0.0006  0.0105  0.0286  0.0195  0.0019  0.0220 </r>
        <r>  0.0058  0.0006  0.0118  0.0074  0.0133  0.0289  0.0093  0.0164  0.0231 </r>
       </set>
       <set comment="band 24">
        <r>  0.0093  0.0013  0.0052  0.0087  0.0491  0.0278  0.0058  0.0162  0.0159 </r>
        <r>  0.0014  0.0081  0.0022  0.0109  0.0249  0.0936  0.0062  0.0160  0.0039 </r>
        <r>  0.0009  0.0106  0.0054  0.0238  0.0257  0.0290  0.0187  0.0153  0.0250 </r>
       </set>
       <set comment="band 25">
        <r>  0.0002  0.0074  0.0013  0.0006  0.0046  0.0492  0.0063  0.0175  0.0064 </r>
        <r>  0.0031  0.0118  0.0150  0.0037  0.0112  0.0275  0.0202  0.0032  0.0068 </r>
        <r>  0.0073  0.0032  0.0039  0.0063  0.0382  0.0242  0.0223  0.0227  0.0198 </r>
       </set>
       <set comment="band 26">
        <r>  0.0009  0.0114  0.0044  0.0087  0.0282  0.0388  0.0252  0.0103  0.0015 </r>
        <r>  0.0087  0.0046  0.0025  0.0202  0.0220  0.0034  0.0180  0.0111  0.0377 </r>
        <r>  0.0036  0.0012  0.0170  0.0030  0.0040  0.0355  0.0181  0.0110  0.0229 </r>
       </set>
       <set comment="band 27">
        <r>  0.0028  0.0050  0.0083  0.0040  0.0343  0.0189  0.0365  0.0091  0.0380 </r>
        <r>  0.0000  0.0089  0.0007  0.0010  0.0108  0.0151  0.0188  0.0129  0.0495 </r>
        <r>  0.0026  0.0041  0.0004  0.0028  0.0321  0.0084  0.0248  0.0016  0.0037 </r>
       </set>
       <set comment="band 28">
        <r>  0.0066  0.0010  0.0014  0.0087  0.0076  0.0077  0.0010  0.0062  0.0133 </r>
        <r>  0.0069  0.0088  0.0020  0.0048  0.0350  0.0024  0.0035  0.0109  0.0295 </r>
        <r>  0.0002  0.0079  0.0036  0.0004  0.0055  0.0071  0.0060  0.0045  0.0569 </r>
       </set>
       <set comment="band 29">
        <r>  0.0027  0.0056  0.0022  0.0141  0.0066  0.0115  0.0524  0.0107  0.0427 </r>
        <r>  0.0078  0.0007  0.0073  0.0066  0.0132  0.0215  0.0302  0.0081  0.0026 </r>
        <r>  0.0094  0.0040  0.0006  0.0004  0.0001  0.0266  0.0231  0.0079  0.0035 </r>
       </set>
       <set comment="band 30">
        <r>  0.0079  0.0002  0.0238  0.0070  0.0088  0.0101  0.0546  0.0216  0.0060 </r>
        <r>  0.0009  0.0021  0.0091  0.0043  0.0204  0.0046  0.0168  0.0136  0.0015 </r>
        <r>  0.0015  0.0004  0.0015  0.0053  0.0190  0.0043  0.0567  0.0154  0.0045 </r>
       </set>
       <set comment="band 31">
        <r>  0.0002  0.0017  0.0013  0.0251  0.0026  0.0516  0.0098  0.0554  0.0077 </r>
        <r>  0.0000  0.0108  0.0004  0.0087  0.0031  0.0680  0.0400  0.0847  0.0100 </r>
        <r>  0.0079  0.0040  0.0176  0.0064  0.0226  0.0029  0.0090  0.0002  0.0187 </r>
       </set>
       <set comment="band 32">
        <r>  0.0050  0.0009  0.0083  0.0030  0.0289  0.0056  0.0160  0.0529  0.0234 </r>
        <r>  0.0024  0.0008  0.0154  0.0085  0.0048  0.0033  0.0464  0.0651  0.0175 </r>
        <r>  0.0068  0.0103  0.0088  0.0482  0.0013  0.0127  0.0010  0.0211  0.0604 </r>
       </set>
      </set>
      <set comment="kpoint 21">
       <set comment="band 1">
        <r>  0.2257  0.0014  0.0004  0.0024  0.0000  0.0001  0.0001  0.0001  0.0001 </r>
        <r>  0.1905  0.0049  0.0003  0.0010  0.0000  0.0001  0.0001  0.0001  0.0000 </r>
        <r>  0.2101  0.0043  0.0003  0.0005  0.0001  0.0001  0.0001  0.0001  0.0000 </r>
       </set>
       <set comment="band 2">
        <r>  0.1600  0.0031  0.0081  0.0010  0.0001  0.0002  0.0000  0.0005  0.0001 </r>
        <r>  0.2950  0.0002  0.0043  0.0005  0.0000  0.0005  0.0000  0.0002  0.0002 </r>
        <r>  0.2148  0.0005  0.0058  0.0014  0.0000  0.0006  0.0000  0.0001  0.0002 </r>
       </set>
       <set comment="band 3">
        <r>  0.2854  0.0004  0.0025  0.0015  0.0000  0.0002  0.0000  0.0001  0.0001 </r>
        <r>  0.1808  0.0022  0.0065  0.0015  0.0000  0.0010  0.0000  0.0001  0.0003 </r>
        <r>  0.2464  0.0026  0.0056  0.0014  0.0000  0.0006  0.0000  0.0001  0.0002 </r>
       </set>
       <set comment="band 4">
        <r>  0.0062  0.0663  0.0437  0.0053  0.0000  0.0002  0.0004  0.0001  0.0000 </r>
        <r>  0.0017  0.1033  0.0390  0.0017  0.0001  0.0002  0.0006  0.0000  0.0002 </r>
        <r>  0.0034  0.0781  0.0544  0.0034  0.0002  0.0005  0.0004  0.0000  0.0003 </r>
       </set>
       <set comment="band 5">
        <r>  0.0016  0.0391  0.0943  0.0185  0.0004  0.0003  0.0003  0.0025  0.0000 </r>
        <r>  0.0025  0.0310  0.1040  0.0361  0.0003  0.0001  0.0003  0.0008  0.0000 </r>
        <r>  0.0024  0.0579  0.0679  0.0004  0.0001  0.0002  0.0004  0.0007  0.0002 </r>
       </set>
       <set comment="band 6">
        <r>  0.0066  0.0217  0.0047  0.1536  0.0003  0.0010  0.0004  0.0002  0.0001 </r>
        <r>  0.0142  0.0114  0.0030  0.0841  0.0004  0.0003  0.0001  0.0001  0.0001 </r>
        <r>  0.0034  0.0045  0.0217  0.1392  0.0006  0.0011  0.0001  0.0005  0.0000 </r>
       </set>
       <set comment="band 7">
        <r>  0.0151  0.0032  0.0433  0.0747  0.0004  0.0001  0.0005  0.0021  0.0017 </r>
        <r>  0.0141  0.0049  0.0114  0.0569  0.0006  0.0011  0.0006  0.0039  0.0005 </r>
        <r>  0.0036  0.0477  0.0657  0.1235  0.0002  0.0007  0.0002  0.0014  0.0009 </r>
       </set>
       <set comment="band 8">
        <r>  0.0039  0.1044  0.0119  0.0226  0.0002  0.0011  0.0003  0.0017  0.0021 </r>
        <r>  0.0159  0.0111  0.1091  0.1315  0.0001  0.0025  0.0001  0.0004  0.0001 </r>
        <r>  0.0201  0.0124  0.0208  0.0340  0.0004  0.0015  0.0003  0.0024  0.0009 </r>
       </set>
       <set comment="band 9">
        <r>  0.0100  0.0995  0.0596  0.0327  0.0006  0.0014  0.0000  0.0005  0.0002 </r>
        <r>  0.0069  0.1086  0.0060  0.0456  0.0000  0.0035  0.0011  0.0003  0.0012 </r>
        <r>  0.0153  0.0729  0.0202  0.0272  0.0007  0.0032  0.0009  0.0008  0.0003 </r>
       </set>
       <set comment="band 10">
        <r>  0.0281  0.0040  0.0889  0.0877  0.0012  0.0010  0.0010  0.0033  0.0010 </r>
        <r>  0.0055  0.0527  0.0236  0.0128  0.0006  0.0016  0.0006  0.0029  0.0055 </r>
        <r>  0.0119  0.0661  0.0536  0.0853  0.0005  0.0006  0.0015  0.0025  0.0004 </r>
       </set>
       <set comment="band 11">
        <r>  0.0100  0.0457  0.0656  0.0277  0.0000  0.0024  0.0009  0.0022  0.0045 </r>
        <r>  0.0231  0.1187  0.0121  0.0497  0.0000  0.0007  0.0002  0.0010  0.0011 </r>
        <r>  0.0085  0.0337  0.1576  0.0097  0.0002  0.0033  0.0004  0.0029  0.0045 </r>
       </set>
       <set comment="band 12">
        <r>  0.0051  0.0604  0.0566  0.0433  0.0022  0.0042  0.0004  0.0050  0.0020 </r>
        <r>  0.0004  0.0047  0.1503  0.0578  0.0009  0.0038  0.0002  0.0008  0.0022 </r>
        <r>  0.0169  0.0759  0.0087  0.0577  0.0002  0.0032  0.0006  0.0012  0.0041 </r>
       </set>
       <set comment="band 13">
        <r>  0.0010  0.0000  0.0005  0.0202  0.0010  0.0094  0.0130  0.0001  0.0168 </r>
        <r>  0.0019  0.0080  0.0108  0.0173  0.0008  0.0059  0.0124  0.0053  0.0195 </r>
        <r>  0.0007  0.0032  0.0038  0.0122  0.0006  0.0060  0.0106  0.0043  0.0212 </r>
       </set>
       <set comment="band 14">
        <r>  0.0009  0.0163  0.0066  0.0023  0.0105  0.0035  0.0164  0.0081  0.0066 </r>
        <r>  0.0051  0.0144  0.0042  0.0009  0.0181  0.0016  0.0126  0.0058  0.0102 </r>
        <r>  0.0015  0.0103  0.0007  0.0002  0.0156  0.0070  0.0182  0.0032  0.0048 </r>
       </set>
       <set comment="band 15">
        <r>  0.0093  0.0192  0.0243  0.0010  0.0271  0.0018  0.0197  0.0165  0.0068 </r>
        <r>  0.0033  0.0210  0.0111  0.0095  0.0012  0.0100  0.0269  0.0193  0.0015 </r>
        <r>  0.0096  0.0064  0.0004  0.0027  0.0054  0.0131  0.0221  0.0024  0.0188 </r>
       </set>
       <set comment="band 16">
        <r>  0.0067  0.0194  0.0003  0.0116  0.0003  0.0110  0.0106  0.0276  0.0012 </r>
        <r>  0.0128  0.0009  0.0010  0.0067  0.0356  0.0035  0.0170  0.0184  0.0148 </r>
        <r>  0.0064  0.0277  0.0240  0.0086  0.0178  0.0090  0.0060  0.0255  0.0031 </r>
       </set>
       <set comment="band 17">
        <r>  0.0006  0.0071  0.0005  0.0053  0.0207  0.0177  0.0128  0.0022  0.0018 </r>
        <r>  0.0003  0.0190  0.0107  0.0127  0.0419  0.0014  0.0108  0.0351  0.0088 </r>
        <r>  0.0007  0.0019  0.0001  0.0081  0.0451  0.0021  0.0004  0.0396  0.0041 </r>
       </set>
       <set comment="band 18">
        <r>  0.0001  0.0264  0.0027  0.0130  0.0428  0.0039  0.0253  0.0307  0.0224 </r>
        <r>  0.0025  0.0004  0.0036  0.0000  0.0083  0.0205  0.0014  0.0022  0.0057 </r>
        <r>  0.0009  0.0167  0.0155  0.0058  0.0095  0.0078  0.0104  0.0243  0.0089 </r>
       </set>
       <set comment="band 19">
        <r>  0.0000  0.0145  0.0228  0.0170  0.0004  0.0155  0.0031  0.0153  0.0190 </r>
        <r>  0.0013  0.0448  0.0275  0.0096  0.0143  0.0009  0.0093  0.0113  0.0215 </r>
        <r>  0.0071  0.0194  0.0004  0.0125  0.0252  0.0054  0.0359  0.0192  0.0108 </r>
       </set>
       <set comment="band 20">
        <r>  0.0081  0.0178  0.0162  0.0012  0.0274  0.0230  0.0057  0.0029  0.0115 </r>
        <r>  0.0063  0.0196  0.0279  0.0018  0.0094  0.0127  0.0129  0.0314  0.0032 </r>
        <r>  0.0001  0.0399  0.0051  0.0097  0.0136  0.0095  0.0179  0.0051  0.0226 </r>
       </set>
       <set comment="band 21">
        <r>  0.0043  0.0027  0.0039  0.0061  0.0141  0.0335  0.0152  0.0278  0.0176 </r>
        <r>  0.0039  0.0017  0.0103  0.0021  0.0092  0.0835  0.0588  0.0046  0.0067 </r>
        <r>  0.0037  0.0037  0.0112  0.0052  0.0153  0.0180  0.0118  0.0212  0.0114 </r>
       </set>
       <set comment="band 22">
        <r>  0.0035  0.0117  0.0131  0.0086  0.0031  0.0319  0.0048  0.0223  0.0445 </r>
        <r>  0.0090  0.0090  0.0028  0.0040  0.0163  0.0019  0.0019  0.0458  0.0342 </r>
        <r>  0.0081  0.0021  0.0203  0.0095  0.0182  0.0004  0.0176  0.0032  0.0249 </r>
       </set>
       <set comment="band 23">
        <r>  0.0056  0.0042  0.0101  0.0031  0.0298  0.0079  0.0363  0.0080  0.0141 </r>
        <r>  0.0181  0.0026  0.0027  0.0157  0.0353  0.0152  0.0083  0.0136  0.0045 </r>
        <r>  0.0014  0.0026  0.0191  0.0033  0.0208  0.0457  0.0314  0.0254  0.0041 </r>
       </set>
       <set comment="band 24">
        <r>  0.0242  0.0007  0.0022  0.0018  0.0464  0.0162  0.0045  0.0212  0.0168 </r>
        <r>  0.0020  0.0076  0.0035  0.0125  0.0250  0.0195  0.0208  0.0124  0.0246 </r>
        <r>  0.0022  0.0060  0.0013  0.0032  0.0269  0.0876  0.0028  0.0074  0.0043 </r>
       </set>
       <set comment="band 25">
        <r>  0.0044  0.0114  0.0037  0.0003  0.0059  0.0321  0.0022  0.0037  0.0119 </r>
        <r>  0.0088  0.0034  0.0041  0.0014  0.0132  0.0402  0.0228  0.0161  0.0139 </r>
        <r>  0.0053  0.0092  0.0130  0.0008  0.0022  0.0367  0.0113  0.0008  0.0170 </r>
       </set>
       <set comment="band 26">
        <r>  0.0003  0.0148  0.0045  0.0010  0.0229  0.0451  0.0106  0.0093  0.0008 </r>
        <r>  0.0075  0.0002  0.0186  0.0009  0.0014  0.0683  0.0055  0.0017  0.0218 </r>
        <r>  0.0329  0.0059  0.0064  0.0061  0.0169  0.0156  0.0164  0.0097  0.0301 </r>
       </set>
       <set comment="band 27">
        <r>  0.0035  0.0046  0.0131  0.0169  0.0235  0.0075  0.0696  0.0071  0.0105 </r>
        <r>  0.0043  0.0080  0.0099  0.0020  0.0002  0.0024  0.0588  0.0227  0.0262 </r>
        <r>  0.0048  0.0030  0.0055  0.0213  0.0627  0.0266  0.0221  0.0135  0.0126 </r>
       </set>
       <set comment="band 28">
        <r>  0.0036  0.0000  0.0087  0.0046  0.0367  0.0006  0.0529  0.0279  0.0189 </r>
        <r>  0.0092  0.0039  0.0018  0.0144  0.0794  0.0025  0.0021  0.0012  0.0089 </r>
        <r>  0.0010  0.0046  0.0053  0.0047  0.0097  0.0096  0.0507  0.0353  0.0514 </r>
       </set>
       <set comment="band 29">
        <r>  0.0049  0.0059  0.0032  0.0106  0.0016  0.0726  0.0057  0.0220  0.0094 </r>
        <r>  0.0098  0.0140  0.0014  0.0052  0.0108  0.0178  0.0069  0.0102  0.0210 </r>
        <r>  0.0112  0.0132  0.0031  0.0008  0.0241  0.0200  0.0024  0.0373  0.0065 </r>
       </set>
       <set comment="band 30">
        <r>  0.0123  0.0020  0.0011  0.0087  0.0076  0.0127  0.0182  0.0180  0.0385 </r>
        <r>  0.0020  0.0004  0.0008  0.0001  0.0077  0.0300  0.0034  0.0027  0.0293 </r>
        <r>  0.0004  0.0051  0.0045  0.0006  0.0002  0.0218  0.0017  0.0017  0.0192 </r>
       </set>
       <set comment="band 31">
        <r>  0.0025  0.0050  0.0114  0.0049  0.0122  0.0047  0.0176  0.0051  0.0188 </r>
        <r>  0.0026  0.0029  0.0046  0.0042  0.0450  0.0010  0.0070  0.0373  0.0016 </r>
        <r>  0.0036  0.0021  0.0039  0.0058  0.0563  0.0033  0.0165  0.0345  0.0034 </r>
       </set>
       <set comment="band 32">
        <r>  0.0051  0.0073  0.0035  0.0007  0.0299  0.0084  0.0053  0.0313  0.0061 </r>
        <r>  0.0006  0.0049  0.0059  0.0027  0.0023  0.0022  0.0852  0.0086  0.0100 </r>
        <r>  0.0020  0.0024  0.0078  0.0038  0.0046  0.0007  0.0751  0.0027  0.0076 </r>
       </set>
      </set>
      <set comment="kpoint 22">
       <set comment="band 1">
        <r>  0.1968  0.0007  0.0004  0.0064  0.0000  0.0001  0.0001  0.0001  0.0000 </r>
        <r>  0.2627  0.0028  0.0001  0.0007  0.0002  0.0001  0.0001  0.0003  0.0001 </r>
        <r>  0.1846  0.0050  0.0003  0.0027  0.0000  0.0001  0.0001  0.0001  0.0000 </r>
       </set>
       <set comment="band 2">
        <r>  0.2951  0.0017  0.0018  0.0017  0.0002  0.0001  0.0000  0.0005  0.0000 </r>
        <r>  0.0263  0.0020  0.0073  0.0070  0.0000  0.0005  0.0000  0.0001  0.0002 </r>
        <r>  0.3431  0.0001  0.0014  0.0020  0.0001  0.0003  0.0000  0.0003  0.0001 </r>
       </set>
       <set comment="band 3">
        <r>  0.1737  0.0009  0.0052  0.0028  0.0002  0.0001  0.0000  0.0007  0.0001 </r>
        <r>  0.3867  0.0013  0.0001  0.0005  0.0000  0.0000  0.0000  0.0001  0.0000 </r>
        <r>  0.1365  0.0010  0.0052  0.0037  0.0001  0.0008  0.0000  0.0004  0.0002 </r>
       </set>
       <set comment="band 4">
        <r>  0.0025  0.0536  0.0180  0.0542  0.0002  0.0001  0.0003  0.0001  0.0000 </r>
        <r>  0.0023  0.0307  0.1049  0.0061  0.0003  0.0017  0.0000  0.0000  0.0003 </r>
        <r>  0.0017  0.0707  0.0778  0.0019  0.0002  0.0010  0.0002  0.0001  0.0002 </r>
       </set>
       <set comment="band 5">
        <r>  0.0074  0.0279  0.1275  0.0098  0.0005  0.0001  0.0001  0.0033  0.0000 </r>
        <r>  0.0023  0.0169  0.0208  0.0432  0.0003  0.0003  0.0002  0.0026  0.0003 </r>
        <r>  0.0093  0.0283  0.0612  0.0932  0.0004  0.0002  0.0000  0.0008  0.0001 </r>
       </set>
       <set comment="band 6">
        <r>  0.0047  0.0242  0.0274  0.1036  0.0000  0.0001  0.0002  0.0008  0.0006 </r>
        <r>  0.0060  0.1383  0.0384  0.0200  0.0001  0.0004  0.0005  0.0002  0.0001 </r>
        <r>  0.0131  0.0334  0.0005  0.0160  0.0003  0.0005  0.0008  0.0024  0.0000 </r>
       </set>
       <set comment="band 7">
        <r>  0.0195  0.0409  0.0367  0.0645  0.0000  0.0010  0.0007  0.0008  0.0002 </r>
        <r>  0.0059  0.0019  0.0040  0.1766  0.0004  0.0006  0.0005  0.0013  0.0002 </r>
        <r>  0.0175  0.0394  0.0525  0.0020  0.0001  0.0004  0.0003  0.0013  0.0001 </r>
       </set>
       <set comment="band 8">
        <r>  0.0217  0.0062  0.0099  0.0141  0.0008  0.0021  0.0005  0.0023  0.0000 </r>
        <r>  0.0141  0.0232  0.0468  0.0356  0.0014  0.0013  0.0000  0.0004  0.0001 </r>
        <r>  0.0034  0.0412  0.0583  0.1866  0.0008  0.0003  0.0001  0.0001  0.0005 </r>
       </set>
       <set comment="band 9">
        <r>  0.0010  0.2265  0.0569  0.0010  0.0007  0.0006  0.0003  0.0001  0.0002 </r>
        <r>  0.0110  0.0943  0.0423  0.0104  0.0010  0.0021  0.0004  0.0009  0.0013 </r>
        <r>  0.0178  0.0432  0.0092  0.0004  0.0000  0.0071  0.0013  0.0001  0.0007 </r>
       </set>
       <set comment="band 10">
        <r>  0.0137  0.0263  0.0224  0.0039  0.0044  0.0062  0.0001  0.0004  0.0023 </r>
        <r>  0.0243  0.0873  0.0725  0.0035  0.0007  0.0074  0.0010  0.0004  0.0021 </r>
        <r>  0.0073  0.1566  0.0801  0.0021  0.0003  0.0029  0.0005  0.0001  0.0004 </r>
       </set>
       <set comment="band 11">
        <r>  0.0037  0.0203  0.0832  0.0927  0.0004  0.0012  0.0021  0.0018  0.0000 </r>
        <r>  0.0080  0.0223  0.0998  0.0506  0.0037  0.0024  0.0031  0.0048  0.0011 </r>
        <r>  0.0040  0.0144  0.0408  0.0556  0.0067  0.0011  0.0013  0.0019  0.0043 </r>
       </set>
       <set comment="band 12">
        <r>  0.0028  0.0165  0.0937  0.1220  0.0014  0.0013  0.0019  0.0014  0.0020 </r>
        <r>  0.0001  0.0329  0.0548  0.1068  0.0002  0.0013  0.0003  0.0005  0.0016 </r>
        <r>  0.0035  0.0414  0.1055  0.0741  0.0006  0.0004  0.0004  0.0030  0.0000 </r>
       </set>
       <set comment="band 13">
        <r>  0.0007  0.0270  0.0217  0.0104  0.0164  0.0086  0.0089  0.0024  0.0056 </r>
        <r>  0.0007  0.0223  0.0091  0.0191  0.0119  0.0030  0.0119  0.0034  0.0024 </r>
        <r>  0.0009  0.0050  0.0024  0.0297  0.0131  0.0008  0.0091  0.0071  0.0047 </r>
       </set>
       <set comment="band 14">
        <r>  0.0058  0.0048  0.0028  0.0282  0.0025  0.0033  0.0075  0.0003  0.0261 </r>
        <r>  0.0002  0.0028  0.0069  0.0205  0.0019  0.0090  0.0092  0.0084  0.0186 </r>
        <r>  0.0018  0.0121  0.0019  0.0431  0.0036  0.0084  0.0049  0.0062  0.0238 </r>
       </set>
       <set comment="band 15">
        <r>  0.0023  0.0003  0.0075  0.0087  0.0051  0.0110  0.0203  0.0458  0.0008 </r>
        <r>  0.0133  0.0001  0.0052  0.0163  0.0179  0.0197  0.0145  0.0104  0.0169 </r>
        <r>  0.0117  0.0025  0.0063  0.0132  0.0290  0.0170  0.0197  0.0066  0.0063 </r>
       </set>
       <set comment="band 16">
        <r>  0.0005  0.0281  0.0028  0.0127  0.0285  0.0134  0.0126  0.0069  0.0022 </r>
        <r>  0.0040  0.0219  0.0077  0.0159  0.0199  0.0112  0.0068  0.0237  0.0090 </r>
        <r>  0.0004  0.0288  0.0167  0.0094  0.0053  0.0087  0.0173  0.0053  0.0024 </r>
       </set>
       <set comment="band 17">
        <r>  0.0186  0.0119  0.0043  0.0110  0.0163  0.0112  0.0023  0.0028  0.0106 </r>
        <r>  0.0004  0.0151  0.0022  0.0074  0.0115  0.0021  0.0173  0.0410  0.0066 </r>
        <r>  0.0136  0.0061  0.0178  0.0093  0.0075  0.0113  0.0013  0.0332  0.0036 </r>
       </set>
       <set comment="band 18">
        <r>  0.0083  0.0089  0.0024  0.0109  0.0193  0.0135  0.0286  0.0137  0.0190 </r>
        <r>  0.0106  0.0119  0.0007  0.0007  0.0039  0.0007  0.0274  0.0097  0.0076 </r>
        <r>  0.0030  0.0073  0.0011  0.0005  0.0420  0.0059  0.0430  0.0384  0.0304 </r>
       </set>
       <set comment="band 19">
        <r>  0.0136  0.0095  0.0008  0.0019  0.0044  0.0058  0.0311  0.0521  0.0079 </r>
        <r>  0.0102  0.0020  0.0052  0.0014  0.0254  0.0323  0.0044  0.0306  0.0075 </r>
        <r>  0.0267  0.0037  0.0017  0.0018  0.0028  0.0052  0.0255  0.0441  0.0137 </r>
       </set>
       <set comment="band 20">
        <r>  0.0093  0.0074  0.0192  0.0031  0.0053  0.0659  0.0135  0.0037  0.0502 </r>
        <r>  0.0037  0.0458  0.0183  0.0036  0.0164  0.0108  0.0230  0.0005  0.0356 </r>
        <r>  0.0006  0.0318  0.0066  0.0014  0.0179  0.0028  0.0067  0.0055  0.0165 </r>
       </set>
       <set comment="band 21">
        <r>  0.0012  0.0393  0.0277  0.0000  0.0005  0.0034  0.0190  0.0043  0.0230 </r>
        <r>  0.0044  0.0044  0.0038  0.0040  0.0005  0.0452  0.0131  0.0038  0.0314 </r>
        <r>  0.0055  0.0075  0.0106  0.0055  0.0002  0.1116  0.0033  0.0050  0.0182 </r>
       </set>
       <set comment="band 22">
        <r>  0.0015  0.0057  0.0021  0.0027  0.0114  0.0336  0.0032  0.0078  0.0812 </r>
        <r>  0.0002  0.0001  0.0027  0.0105  0.0318  0.0218  0.0444  0.0008  0.0351 </r>
        <r>  0.0023  0.0073  0.0021  0.0093  0.0031  0.0111  0.0559  0.0027  0.0292 </r>
       </set>
       <set comment="band 23">
        <r>  0.0137  0.0061  0.0036  0.0011  0.0283  0.0093  0.0662  0.0146  0.0020 </r>
        <r>  0.0053  0.0032  0.0058  0.0092  0.0429  0.0111  0.0562  0.0028  0.0279 </r>
        <r>  0.0064  0.0037  0.0055  0.0072  0.0226  0.0245  0.0051  0.0066  0.0261 </r>
       </set>
       <set comment="band 24">
        <r>  0.0037  0.0052  0.0060  0.0144  0.0083  0.0548  0.0220  0.0219  0.0285 </r>
        <r>  0.0000  0.0056  0.0052  0.0061  0.0075  0.0136  0.0066  0.0120  0.0089 </r>
        <r>  0.0007  0.0136  0.0156  0.0021  0.0015  0.0269  0.0437  0.0039  0.0556 </r>
       </set>
       <set comment="band 25">
        <r>  0.0025  0.0025  0.0044  0.0053  0.0168  0.0095  0.0109  0.0049  0.0037 </r>
        <r>  0.0058  0.0129  0.0072  0.0103  0.0033  0.0152  0.0098  0.0005  0.0737 </r>
        <r>  0.0049  0.0003  0.0184  0.0025  0.0362  0.0205  0.0075  0.0057  0.0015 </r>
       </set>
       <set comment="band 26">
        <r>  0.0026  0.0003  0.0004  0.0109  0.0241  0.0000  0.0104  0.0001  0.0347 </r>
        <r>  0.0145  0.0056  0.0028  0.0004  0.0206  0.0523  0.0054  0.0114  0.0026 </r>
        <r>  0.0115  0.0033  0.0011  0.0006  0.0292  0.0147  0.0001  0.0282  0.0439 </r>
       </set>
       <set comment="band 27">
        <r>  0.0072  0.0002  0.0216  0.0007  0.0219  0.0083  0.0564  0.0517  0.0252 </r>
        <r>  0.0012  0.0002  0.0178  0.0070  0.0199  0.0077  0.0004  0.0350  0.0270 </r>
        <r>  0.0037  0.0001  0.0001  0.0073  0.0034  0.0079  0.0584  0.0050  0.0164 </r>
       </set>
       <set comment="band 28">
        <r>  0.0065  0.0033  0.0054  0.0137  0.0235  0.0121  0.0072  0.0121  0.0037 </r>
        <r>  0.0047  0.0026  0.0065  0.0084  0.0066  0.0065  0.0525  0.0253  0.0095 </r>
        <r>  0.0060  0.0054  0.0030  0.0278  0.0014  0.0006  0.0091  0.0161  0.0275 </r>
       </set>
       <set comment="band 29">
        <r>  0.0019  0.0016  0.0032  0.0079  0.0530  0.0267  0.0023  0.0446  0.0120 </r>
        <r>  0.0014  0.0025  0.0076  0.0304  0.0201  0.0227  0.0057  0.0239  0.0061 </r>
        <r>  0.0023  0.0054  0.0191  0.0154  0.0418  0.0155  0.0286  0.0174  0.0246 </r>
       </set>
       <set comment="band 30">
        <r>  0.0048  0.0068  0.0133  0.0123  0.0301  0.0046  0.0086  0.0415  0.0018 </r>
        <r>  0.0026  0.0017  0.0157  0.0102  0.0215  0.0151  0.0047  0.0932  0.0037 </r>
        <r>  0.0040  0.0056  0.0118  0.0056  0.0153  0.0089  0.0073  0.0735  0.0035 </r>
       </set>
       <set comment="band 31">
        <r>  0.0017  0.0033  0.0019  0.0061  0.0585  0.0163  0.0237  0.0101  0.0015 </r>
        <r>  0.0031  0.0046  0.0173  0.0031  0.0273  0.0122  0.0661  0.0426  0.0183 </r>
        <r>  0.0006  0.0021  0.0108  0.0142  0.0355  0.0016  0.0264  0.0161  0.0269 </r>
       </set>
       <set comment="band 32">
        <r>  0.0031  0.0173  0.0094  0.0078  0.0159  0.0003  0.0073  0.0041  0.0105 </r>
        <r>  0.0079  0.0067  0.0070  0.0046  0.0750  0.0275  0.0140  0.0071  0.0192 </r>
        <r>  0.0055  0.0023  0.0005  0.0041  0.0678  0.0100  0.0087  0.0393  0.0147 </r>
       </set>
      </set>
      <set comment="kpoint 23">
       <set comment="band 1">
        <r>  0.2619  0.0007  0.0003  0.0032  0.0000  0.0003  0.0001  0.0000  0.0002 </r>
        <r>  0.1835  0.0070  0.0003  0.0010  0.0000  0.0001  0.0001  0.0001  0.0000 </r>
        <r>  0.1984  0.0065  0.0003  0.0009  0.0001  0.0001  0.0001  0.0001  0.0000 </r>
       </set>
       <set comment="band 2">
        <r>  0.0698  0.0074  0.0064  0.0004  0.0001  0.0001  0.0000  0.0005  0.0000 </r>
        <r>  0.3203  0.0013  0.0017  0.0004  0.0000  0.0005  0.0000  0.0001  0.0002 </r>
        <r>  0.2708  0.0014  0.0021  0.0009  0.0000  0.0005  0.0000  0.0001  0.0002 </r>
       </set>
       <set comment="band 3">
        <r>  0.3458  0.0004  0.0002  0.0011  0.0000  0.0002  0.0000  0.0000  0.0001 </r>
        <r>  0.1637  0.0019  0.0046  0.0022  0.0000  0.0011  0.0000  0.0001  0.0004 </r>
        <r>  0.2008  0.0031  0.0046  0.0013  0.0000  0.0009  0.0000  0.0001  0.0003 </r>
       </set>
       <set comment="band 4">
        <r>  0.0016  0.0458  0.0562  0.0150  0.0000  0.0008  0.0002  0.0003  0.0002 </r>
        <r>  0.0043  0.0981  0.0419  0.0007  0.0001  0.0006  0.0003  0.0001  0.0000 </r>
        <r>  0.0066  0.0715  0.0553  0.0076  0.0002  0.0008  0.0003  0.0001  0.0001 </r>
       </set>
       <set comment="band 5">
        <r>  0.0006  0.0462  0.0858  0.0020  0.0005  0.0007  0.0001  0.0023  0.0000 </r>
        <r>  0.0025  0.0422  0.1017  0.0083  0.0003  0.0004  0.0001  0.0006  0.0002 </r>
        <r>  0.0018  0.0629  0.0843  0.0124  0.0001  0.0003  0.0000  0.0006  0.0004 </r>
       </set>
       <set comment="band 6">
        <r>  0.0076  0.0188  0.0080  0.1489  0.0001  0.0006  0.0005  0.0002  0.0001 </r>
        <r>  0.0078  0.0066  0.0133  0.1261  0.0002  0.0005  0.0003  0.0002  0.0001 </r>
        <r>  0.0033  0.0016  0.0034  0.1004  0.0001  0.0013  0.0003  0.0002  0.0001 </r>
       </set>
       <set comment="band 7">
        <r>  0.0040  0.1303  0.0217  0.0098  0.0002  0.0017  0.0006  0.0002  0.0013 </r>
        <r>  0.0153  0.0266  0.0551  0.0409  0.0000  0.0038  0.0006  0.0005  0.0003 </r>
        <r>  0.0158  0.0271  0.0690  0.0370  0.0001  0.0033  0.0006  0.0009  0.0003 </r>
       </set>
       <set comment="band 8">
        <r>  0.0122  0.0420  0.0397  0.0518  0.0001  0.0008  0.0000  0.0019  0.0010 </r>
        <r>  0.0240  0.0157  0.0149  0.0239  0.0002  0.0010  0.0008  0.0038  0.0004 </r>
        <r>  0.0095  0.0771  0.0378  0.1099  0.0000  0.0002  0.0003  0.0006  0.0013 </r>
       </set>
       <set comment="band 9">
        <r>  0.0131  0.0045  0.0475  0.0863  0.0005  0.0003  0.0002  0.0023  0.0017 </r>
        <r>  0.0011  0.0731  0.0503  0.1562  0.0000  0.0002  0.0004  0.0006  0.0012 </r>
        <r>  0.0177  0.0136  0.0079  0.0423  0.0005  0.0009  0.0010  0.0049  0.0002 </r>
       </set>
       <set comment="band 10">
        <r>  0.0246  0.0066  0.0730  0.0878  0.0008  0.0007  0.0011  0.0060  0.0025 </r>
        <r>  0.0098  0.0215  0.0261  0.0153  0.0002  0.0005  0.0002  0.0053  0.0076 </r>
        <r>  0.0059  0.0349  0.0808  0.1100  0.0001  0.0006  0.0009  0.0030  0.0002 </r>
       </set>
       <set comment="band 11">
        <r>  0.0099  0.0204  0.1045  0.0478  0.0007  0.0015  0.0026  0.0066  0.0047 </r>
        <r>  0.0066  0.0298  0.0673  0.0823  0.0001  0.0015  0.0016  0.0010  0.0003 </r>
        <r>  0.0085  0.0180  0.0407  0.0580  0.0000  0.0006  0.0017  0.0027  0.0113 </r>
       </set>
       <set comment="band 12">
        <r>  0.0027  0.1258  0.0404  0.0019  0.0008  0.0040  0.0004  0.0002  0.0012 </r>
        <r>  0.0067  0.1201  0.1008  0.0008  0.0001  0.0046  0.0012  0.0001  0.0012 </r>
        <r>  0.0106  0.1256  0.0981  0.0010  0.0003  0.0052  0.0003  0.0003  0.0007 </r>
       </set>
       <set comment="band 13">
        <r>  0.0015  0.0014  0.0082  0.0294  0.0004  0.0074  0.0110  0.0003  0.0153 </r>
        <r>  0.0017  0.0064  0.0143  0.0365  0.0002  0.0061  0.0095  0.0054  0.0217 </r>
        <r>  0.0011  0.0094  0.0082  0.0111  0.0003  0.0049  0.0083  0.0048  0.0185 </r>
       </set>
       <set comment="band 14">
        <r>  0.0008  0.0118  0.0024  0.0065  0.0088  0.0086  0.0157  0.0044  0.0091 </r>
        <r>  0.0016  0.0434  0.0011  0.0014  0.0231  0.0017  0.0082  0.0066  0.0101 </r>
        <r>  0.0013  0.0311  0.0013  0.0012  0.0219  0.0046  0.0155  0.0024  0.0046 </r>
       </set>
       <set comment="band 15">
        <r>  0.0010  0.0539  0.0173  0.0076  0.0255  0.0053  0.0050  0.0242  0.0075 </r>
        <r>  0.0048  0.0324  0.0117  0.0094  0.0038  0.0055  0.0004  0.0115  0.0082 </r>
        <r>  0.0047  0.0194  0.0025  0.0029  0.0001  0.0090  0.0065  0.0192  0.0254 </r>
       </set>
       <set comment="band 16">
        <r>  0.0051  0.0020  0.0045  0.0073  0.0137  0.0019  0.0284  0.0345  0.0022 </r>
        <r>  0.0022  0.0056  0.0103  0.0039  0.0068  0.0044  0.0572  0.0317  0.0037 </r>
        <r>  0.0034  0.0234  0.0076  0.0071  0.0338  0.0004  0.0294  0.0015  0.0030 </r>
       </set>
       <set comment="band 17">
        <r>  0.0048  0.0246  0.0122  0.0157  0.0063  0.0026  0.0115  0.0381  0.0129 </r>
        <r>  0.0200  0.0010  0.0055  0.0212  0.0198  0.0033  0.0016  0.0018  0.0235 </r>
        <r>  0.0009  0.0309  0.0230  0.0067  0.0015  0.0004  0.0016  0.0743  0.0023 </r>
       </set>
       <set comment="band 18">
        <r>  0.0041  0.0113  0.0058  0.0119  0.0122  0.0002  0.0384  0.0043  0.0060 </r>
        <r>  0.0031  0.0266  0.0023  0.0034  0.0008  0.0329  0.0314  0.0247  0.0032 </r>
        <r>  0.0004  0.0027  0.0164  0.0119  0.0269  0.0325  0.0195  0.0187  0.0091 </r>
       </set>
       <set comment="band 19">
        <r>  0.0002  0.0031  0.0018  0.0044  0.0491  0.0418  0.0038  0.0092  0.0094 </r>
        <r>  0.0027  0.0062  0.0148  0.0105  0.1011  0.0046  0.0012  0.0097  0.0004 </r>
        <r>  0.0108  0.0128  0.0001  0.0081  0.0112  0.0003  0.0220  0.0101  0.0014 </r>
       </set>
       <set comment="band 20">
        <r>  0.0037  0.0122  0.0056  0.0116  0.0056  0.0438  0.0032  0.0017  0.0120 </r>
        <r>  0.0049  0.0039  0.0025  0.0019  0.0060  0.0326  0.0015  0.0809  0.0063 </r>
        <r>  0.0116  0.0144  0.0028  0.0215  0.0564  0.0044  0.0357  0.0025  0.0113 </r>
       </set>
       <set comment="band 21">
        <r>  0.0169  0.0036  0.0016  0.0043  0.0085  0.0143  0.0026  0.0115  0.0119 </r>
        <r>  0.0097  0.0010  0.0059  0.0001  0.0232  0.0093  0.0558  0.0148  0.0177 </r>
        <r>  0.0060  0.0101  0.0097  0.0047  0.0311  0.1015  0.0113  0.0005  0.0025 </r>
       </set>
       <set comment="band 22">
        <r>  0.0077  0.0226  0.0015  0.0007  0.0955  0.0173  0.0198  0.0042  0.0128 </r>
        <r>  0.0012  0.0309  0.0102  0.0030  0.0320  0.0129  0.0165  0.0029  0.0072 </r>
        <r>  0.0060  0.0021  0.0112  0.0011  0.0167  0.0083  0.0394  0.0008  0.0082 </r>
       </set>
       <set comment="band 23">
        <r>  0.0023  0.0032  0.0219  0.0007  0.0156  0.0181  0.0028  0.0053  0.0489 </r>
        <r>  0.0000  0.0063  0.0262  0.0064  0.0058  0.0607  0.0435  0.0018  0.0035 </r>
        <r>  0.0196  0.0001  0.0064  0.0057  0.0127  0.0009  0.0274  0.0154  0.0043 </r>
       </set>
       <set comment="band 24">
        <r>  0.0100  0.0066  0.0015  0.0091  0.0063  0.0131  0.0718  0.0187  0.0079 </r>
        <r>  0.0148  0.0001  0.0180  0.0001  0.0117  0.0205  0.0005  0.0113  0.0213 </r>
        <r>  0.0008  0.0013  0.0003  0.0065  0.0849  0.0340  0.0009  0.0085  0.0442 </r>
       </set>
       <set comment="band 25">
        <r>  0.0038  0.0103  0.0207  0.0021  0.0547  0.0373  0.0249  0.0068  0.0017 </r>
        <r>  0.0037  0.0137  0.0050  0.0067  0.0097  0.0385  0.0108  0.0033  0.0134 </r>
        <r>  0.0015  0.0128  0.0137  0.0013  0.0004  0.0003  0.0387  0.0410  0.0124 </r>
       </set>
       <set comment="band 26">
        <r>  0.0033  0.0105  0.0109  0.0065  0.0176  0.0097  0.0301  0.0516  0.0077 </r>
        <r>  0.0205  0.0059  0.0054  0.0270  0.0386  0.0374  0.0044  0.0075  0.0186 </r>
        <r>  0.0114  0.0055  0.0188  0.0065  0.0087  0.0317  0.0011  0.0344  0.0144 </r>
       </set>
       <set comment="band 27">
        <r>  0.0055  0.0003  0.0042  0.0061  0.0118  0.0741  0.0254  0.0126  0.0260 </r>
        <r>  0.0016  0.0013  0.0130  0.0098  0.0415  0.0308  0.0009  0.0195  0.0215 </r>
        <r>  0.0025  0.0074  0.0181  0.0112  0.0073  0.0653  0.0087  0.0228  0.0051 </r>
       </set>
       <set comment="band 28">
        <r>  0.0040  0.0210  0.0098  0.0154  0.0028  0.0133  0.0026  0.0020  0.0129 </r>
        <r>  0.0051  0.0090  0.0022  0.0029  0.0206  0.0095  0.0469  0.0087  0.0199 </r>
        <r>  0.0177  0.0167  0.0007  0.0109  0.0189  0.0067  0.0044  0.0187  0.0469 </r>
       </set>
       <set comment="band 29">
        <r>  0.0122  0.0012  0.0016  0.0006  0.0031  0.0259  0.0081  0.0002  0.0521 </r>
        <r>  0.0123  0.0072  0.0035  0.0016  0.0123  0.0090  0.0207  0.0131  0.0065 </r>
        <r>  0.0008  0.0043  0.0003  0.0045  0.0152  0.0121  0.0433  0.0042  0.0138 </r>
       </set>
       <set comment="band 30">
        <r>  0.0002  0.0043  0.0017  0.0059  0.0389  0.0013  0.0005  0.0143  0.0207 </r>
        <r>  0.0007  0.0031  0.0002  0.0055  0.0362  0.0004  0.0340  0.0433  0.0758 </r>
        <r>  0.0075  0.0003  0.0020  0.0096  0.0217  0.0035  0.0192  0.0058  0.0287 </r>
       </set>
       <set comment="band 31">
        <r>  0.0077  0.0013  0.0058  0.0124  0.0044  0.0000  0.0202  0.0161  0.0150 </r>
        <r>  0.0065  0.0068  0.0004  0.0012  0.0029  0.0056  0.0060  0.0025  0.0099 </r>
        <r>  0.0003  0.0038  0.0013  0.0003  0.0236  0.0120  0.0027  0.0030  0.0258 </r>
       </set>
       <set comment="band 32">
        <r>  0.0050  0.0054  0.0002  0.0011  0.0254  0.0130  0.0635  0.0822  0.0084 </r>
        <r>  0.0014  0.0047  0.0017  0.0002  0.0180  0.0049  0.0174  0.0014  0.0163 </r>
        <r>  0.0013  0.0015  0.0079  0.0014  0.0255  0.0093  0.0292  0.0049  0.0194 </r>
       </set>
      </set>
      <set comment="kpoint 24">
       <set comment="band 1">
        <r>  0.2270  0.0010  0.0004  0.0046  0.0000  0.0002  0.0001  0.0001  0.0001 </r>
        <r>  0.2302  0.0047  0.0002  0.0008  0.0001  0.0001  0.0001  0.0002  0.0000 </r>
        <r>  0.1848  0.0060  0.0002  0.0017  0.0000  0.0001  0.0001  0.0001  0.0000 </r>
       </set>
       <set comment="band 2">
        <r>  0.1693  0.0040  0.0049  0.0011  0.0002  0.0002  0.0000  0.0007  0.0001 </r>
        <r>  0.1487  0.0010  0.0049  0.0035  0.0000  0.0007  0.0000  0.0001  0.0002 </r>
        <r>  0.3567  0.0004  0.0022  0.0008  0.0001  0.0004  0.0000  0.0002  0.0001 </r>
       </set>
       <set comment="band 3">
        <r>  0.2738  0.0007  0.0020  0.0026  0.0001  0.0001  0.0000  0.0001  0.0001 </r>
        <r>  0.2934  0.0030  0.0024  0.0019  0.0000  0.0003  0.0000  0.0001  0.0001 </r>
        <r>  0.1233  0.0014  0.0043  0.0042  0.0000  0.0009  0.0000  0.0001  0.0004 </r>
       </set>
       <set comment="band 4">
        <r>  0.0011  0.0581  0.0344  0.0245  0.0001  0.0003  0.0003  0.0002  0.0001 </r>
        <r>  0.0020  0.0592  0.0703  0.0079  0.0004  0.0012  0.0002  0.0000  0.0002 </r>
        <r>  0.0002  0.0924  0.0564  0.0013  0.0002  0.0007  0.0002  0.0000  0.0001 </r>
       </set>
       <set comment="band 5">
        <r>  0.0028  0.0346  0.1190  0.0075  0.0006  0.0002  0.0001  0.0038  0.0000 </r>
        <r>  0.0013  0.0455  0.0565  0.0132  0.0003  0.0004  0.0002  0.0016  0.0004 </r>
        <r>  0.0033  0.0384  0.0955  0.0417  0.0005  0.0002  0.0001  0.0011  0.0001 </r>
       </set>
       <set comment="band 6">
        <r>  0.0049  0.0306  0.0051  0.1641  0.0002  0.0013  0.0003  0.0001  0.0004 </r>
        <r>  0.0087  0.0250  0.0088  0.0906  0.0002  0.0020  0.0006  0.0006  0.0001 </r>
        <r>  0.0286  0.0183  0.0084  0.0504  0.0001  0.0012  0.0007  0.0004  0.0000 </r>
       </set>
       <set comment="band 7">
        <r>  0.0236  0.0056  0.0409  0.0341  0.0001  0.0003  0.0006  0.0011  0.0006 </r>
        <r>  0.0065  0.0617  0.0704  0.1090  0.0002  0.0003  0.0000  0.0004  0.0005 </r>
        <r>  0.0049  0.0025  0.0058  0.0701  0.0004  0.0002  0.0003  0.0033  0.0005 </r>
       </set>
       <set comment="band 8">
        <r>  0.0121  0.0656  0.0125  0.0227  0.0001  0.0013  0.0003  0.0020  0.0010 </r>
        <r>  0.0163  0.0080  0.0128  0.0597  0.0004  0.0004  0.0003  0.0031  0.0006 </r>
        <r>  0.0148  0.0172  0.0954  0.1364  0.0000  0.0006  0.0002  0.0006  0.0003 </r>
       </set>
       <set comment="band 9">
        <r>  0.0089  0.1230  0.0551  0.0195  0.0007  0.0016  0.0002  0.0002  0.0001 </r>
        <r>  0.0167  0.0733  0.0423  0.0206  0.0004  0.0030  0.0008  0.0004  0.0004 </r>
        <r>  0.0099  0.0952  0.0095  0.0119  0.0000  0.0049  0.0009  0.0003  0.0008 </r>
       </set>
       <set comment="band 10">
        <r>  0.0163  0.0363  0.0884  0.0443  0.0028  0.0032  0.0006  0.0004  0.0000 </r>
        <r>  0.0186  0.1061  0.0463  0.0339  0.0009  0.0023  0.0021  0.0005  0.0015 </r>
        <r>  0.0067  0.1133  0.0497  0.0169  0.0001  0.0034  0.0010  0.0003  0.0019 </r>
       </set>
       <set comment="band 11">
        <r>  0.0036  0.0668  0.0164  0.0808  0.0002  0.0024  0.0015  0.0021  0.0039 </r>
        <r>  0.0007  0.0353  0.1472  0.0377  0.0005  0.0035  0.0008  0.0043  0.0014 </r>
        <r>  0.0034  0.0492  0.0718  0.0415  0.0010  0.0010  0.0001  0.0015  0.0058 </r>
       </set>
       <set comment="band 12">
        <r>  0.0033  0.0233  0.1214  0.0713  0.0010  0.0017  0.0020  0.0034  0.0036 </r>
        <r>  0.0046  0.0347  0.0291  0.1101  0.0000  0.0012  0.0009  0.0005  0.0068 </r>
        <r>  0.0023  0.0205  0.0822  0.0891  0.0007  0.0010  0.0011  0.0013  0.0003 </r>
       </set>
       <set comment="band 13">
        <r>  0.0013  0.0092  0.0041  0.0099  0.0059  0.0112  0.0000  0.0020  0.0248 </r>
        <r>  0.0003  0.0089  0.0048  0.0075  0.0100  0.0091  0.0080  0.0025  0.0115 </r>
        <r>  0.0044  0.0266  0.0043  0.0247  0.0086  0.0063  0.0164  0.0094  0.0033 </r>
       </set>
       <set comment="band 14">
        <r>  0.0012  0.0132  0.0008  0.0204  0.0084  0.0001  0.0259  0.0048  0.0012 </r>
        <r>  0.0015  0.0086  0.0095  0.0134  0.0088  0.0018  0.0148  0.0046  0.0118 </r>
        <r>  0.0010  0.0016  0.0152  0.0251  0.0121  0.0021  0.0023  0.0008  0.0276 </r>
       </set>
       <set comment="band 15">
        <r>  0.0051  0.0295  0.0115  0.0042  0.0360  0.0026  0.0001  0.0245  0.0037 </r>
        <r>  0.0174  0.0221  0.0008  0.0029  0.0095  0.0095  0.0107  0.0009  0.0227 </r>
        <r>  0.0036  0.0339  0.0025  0.0035  0.0279  0.0042  0.0028  0.0207  0.0085 </r>
       </set>
       <set comment="band 16">
        <r>  0.0026  0.0114  0.0048  0.0138  0.0023  0.0219  0.0114  0.0369  0.0036 </r>
        <r>  0.0005  0.0099  0.0123  0.0057  0.0215  0.0186  0.0025  0.0549  0.0007 </r>
        <r>  0.0202  0.0049  0.0066  0.0119  0.0042  0.0142  0.0235  0.0061  0.0002 </r>
       </set>
       <set comment="band 17">
        <r>  0.0185  0.0028  0.0017  0.0156  0.0057  0.0074  0.0259  0.0090  0.0090 </r>
        <r>  0.0000  0.0097  0.0028  0.0043  0.0197  0.0001  0.0186  0.0338  0.0125 </r>
        <r>  0.0101  0.0068  0.0217  0.0032  0.0003  0.0051  0.0257  0.0182  0.0126 </r>
       </set>
       <set comment="band 18">
        <r>  0.0063  0.0017  0.0012  0.0017  0.0333  0.0059  0.0176  0.0271  0.0087 </r>
        <r>  0.0164  0.0146  0.0043  0.0100  0.0067  0.0030  0.0264  0.0292  0.0017 </r>
        <r>  0.0092  0.0002  0.0052  0.0023  0.0363  0.0047  0.0123  0.0635  0.0037 </r>
       </set>
       <set comment="band 19">
        <r>  0.0095  0.0321  0.0009  0.0050  0.0104  0.0120  0.0291  0.0207  0.0080 </r>
        <r>  0.0013  0.0008  0.0026  0.0005  0.0067  0.0237  0.0064  0.0067  0.0085 </r>
        <r>  0.0048  0.0231  0.0046  0.0024  0.0278  0.0383  0.0374  0.0196  0.0176 </r>
       </set>
       <set comment="band 20">
        <r>  0.0001  0.0029  0.0170  0.0012  0.0030  0.0563  0.0058  0.0021  0.0105 </r>
        <r>  0.0086  0.0447  0.0038  0.0051  0.0643  0.0061  0.0562  0.0001  0.0034 </r>
        <r>  0.0054  0.0065  0.0001  0.0014  0.0432  0.0137  0.0042  0.0231  0.0138 </r>
       </set>
       <set comment="band 21">
        <r>  0.0063  0.0106  0.0009  0.0007  0.0035  0.0101  0.0050  0.0008  0.0572 </r>
        <r>  0.0023  0.0018  0.0242  0.0024  0.0018  0.0783  0.0091  0.0008  0.0119 </r>
        <r>  0.0062  0.0002  0.0065  0.0034  0.0055  0.0256  0.0266  0.0014  0.0146 </r>
       </set>
       <set comment="band 22">
        <r>  0.0199  0.0181  0.0107  0.0002  0.0479  0.0313  0.0112  0.0017  0.0522 </r>
        <r>  0.0096  0.0115  0.0134  0.0025  0.0143  0.0155  0.0008  0.0002  0.0099 </r>
        <r>  0.0011  0.0132  0.0236  0.0005  0.0072  0.0684  0.0136  0.0072  0.0164 </r>
       </set>
       <set comment="band 23">
        <r>  0.0020  0.0132  0.0138  0.0038  0.0002  0.0361  0.0438  0.0157  0.0051 </r>
        <r>  0.0003  0.0009  0.0060  0.0061  0.0141  0.0180  0.0490  0.0087  0.0107 </r>
        <r>  0.0090  0.0285  0.0125  0.0024  0.0030  0.0135  0.0460  0.0015  0.0280 </r>
       </set>
       <set comment="band 24">
        <r>  0.0009  0.0094  0.0186  0.0016  0.0403  0.0275  0.0498  0.0146  0.0086 </r>
        <r>  0.0065  0.0106  0.0019  0.0009  0.0396  0.0054  0.0178  0.0107  0.0546 </r>
        <r>  0.0003  0.0111  0.0039  0.0000  0.0082  0.0279  0.0148  0.0015  0.0097 </r>
       </set>
       <set comment="band 25">
        <r>  0.0005  0.0075  0.0053  0.0012  0.0045  0.0005  0.0053  0.0030  0.0179 </r>
        <r>  0.0114  0.0172  0.0027  0.0020  0.0083  0.0498  0.0102  0.0018  0.0482 </r>
        <r>  0.0145  0.0036  0.0106  0.0014  0.0267  0.0310  0.0052  0.0103  0.0481 </r>
       </set>
       <set comment="band 26">
        <r>  0.0022  0.0001  0.0021  0.0139  0.0037  0.0345  0.0348  0.0491  0.0215 </r>
        <r>  0.0003  0.0021  0.0020  0.0392  0.0128  0.0251  0.0108  0.0476  0.0428 </r>
        <r>  0.0002  0.0020  0.0033  0.0187  0.0098  0.0082  0.0464  0.0426  0.0256 </r>
       </set>
       <set comment="band 27">
        <r>  0.0028  0.0110  0.0105  0.0042  0.1253  0.0172  0.0180  0.0052  0.0093 </r>
        <r>  0.0022  0.0043  0.0160  0.0091  0.0520  0.0059  0.0345  0.0035  0.0082 </r>
        <r>  0.0017  0.0095  0.0064  0.0222  0.0526  0.0140  0.0221  0.0082  0.0106 </r>
       </set>
       <set comment="band 28">
        <r>  0.0014  0.0054  0.0041  0.0100  0.0177  0.0026  0.0099  0.0002  0.0652 </r>
        <r>  0.0007  0.0011  0.0066  0.0009  0.0281  0.0124  0.0281  0.0148  0.0120 </r>
        <r>  0.0021  0.0013  0.0064  0.0051  0.0231  0.0048  0.0248  0.0130  0.0160 </r>
       </set>
       <set comment="band 29">
        <r>  0.0010  0.0026  0.0033  0.0295  0.0043  0.0142  0.0465  0.0104  0.0023 </r>
        <r>  0.0011  0.0093  0.0198  0.0089  0.0352  0.0262  0.0175  0.0421  0.0160 </r>
        <r>  0.0049  0.0008  0.0071  0.0133  0.0152  0.0160  0.0026  0.0108  0.0199 </r>
       </set>
       <set comment="band 30">
        <r>  0.0052  0.0041  0.0018  0.0038  0.0146  0.0027  0.0289  0.0488  0.0142 </r>
        <r>  0.0018  0.0024  0.0090  0.0056  0.0295  0.0182  0.0188  0.0193  0.0273 </r>
        <r>  0.0040  0.0027  0.0022  0.0148  0.0635  0.0032  0.0290  0.0004  0.0085 </r>
       </set>
       <set comment="band 31">
        <r>  0.0003  0.0001  0.0154  0.0037  0.0086  0.0299  0.0024  0.0080  0.0136 </r>
        <r>  0.0108  0.0019  0.0011  0.0305  0.0143  0.0018  0.0139  0.0235  0.0003 </r>
        <r>  0.0042  0.0070  0.0041  0.0107  0.0061  0.0179  0.0052  0.0165  0.0117 </r>
       </set>
       <set comment="band 32">
        <r>  0.0103  0.0013  0.0061  0.0364  0.0015  0.0219  0.0139  0.0415  0.0315 </r>
        <r>  0.0081  0.0004  0.0028  0.0020  0.0019  0.0142  0.0301  0.0149  0.0265 </r>
        <r>  0.0025  0.0042  0.0047  0.0170  0.0086  0.0120  0.0010  0.0181  0.0562 </r>
       </set>
      </set>
      <set comment="kpoint 25">
       <set comment="band 1">
        <r>  0.2027  0.0003  0.0002  0.0074  0.0000  0.0002  0.0001  0.0001  0.0001 </r>
        <r>  0.2465  0.0039  0.0002  0.0018  0.0001  0.0001  0.0001  0.0002  0.0001 </r>
        <r>  0.2040  0.0056  0.0002  0.0021  0.0001  0.0001  0.0001  0.0002  0.0000 </r>
       </set>
       <set comment="band 2">
        <r>  0.2906  0.0025  0.0022  0.0005  0.0002  0.0000  0.0000  0.0006  0.0000 </r>
        <r>  0.0967  0.0015  0.0049  0.0053  0.0001  0.0006  0.0000  0.0003  0.0002 </r>
        <r>  0.2834  0.0007  0.0022  0.0019  0.0001  0.0004  0.0000  0.0003  0.0001 </r>
       </set>
       <set comment="band 3">
        <r>  0.1736  0.0026  0.0030  0.0027  0.0002  0.0001  0.0000  0.0006  0.0001 </r>
        <r>  0.3286  0.0032  0.0006  0.0004  0.0001  0.0000  0.0000  0.0001  0.0000 </r>
        <r>  0.1800  0.0007  0.0030  0.0054  0.0000  0.0006  0.0000  0.0001  0.0002 </r>
       </set>
       <set comment="band 4">
        <r>  0.0001  0.0335  0.0400  0.0614  0.0000  0.0002  0.0002  0.0010  0.0003 </r>
        <r>  0.0009  0.0240  0.0697  0.0367  0.0004  0.0011  0.0002  0.0004  0.0002 </r>
        <r>  0.0017  0.0690  0.0673  0.0064  0.0002  0.0011  0.0001  0.0004  0.0002 </r>
       </set>
       <set comment="band 5">
        <r>  0.0059  0.0294  0.1101  0.0149  0.0006  0.0005  0.0001  0.0018  0.0001 </r>
        <r>  0.0014  0.0155  0.0549  0.0528  0.0001  0.0016  0.0000  0.0015  0.0006 </r>
        <r>  0.0057  0.0442  0.0752  0.0465  0.0007  0.0004  0.0000  0.0009  0.0000 </r>
       </set>
       <set comment="band 6">
        <r>  0.0070  0.0446  0.0355  0.1016  0.0002  0.0002  0.0002  0.0011  0.0004 </r>
        <r>  0.0092  0.1459  0.0569  0.0060  0.0003  0.0007  0.0004  0.0007  0.0001 </r>
        <r>  0.0139  0.0112  0.0055  0.0015  0.0003  0.0003  0.0006  0.0027  0.0001 </r>
       </set>
       <set comment="band 7">
        <r>  0.0201  0.0316  0.0014  0.0305  0.0004  0.0012  0.0008  0.0019  0.0001 </r>
        <r>  0.0184  0.0152  0.0279  0.0456  0.0005  0.0012  0.0006  0.0003  0.0001 </r>
        <r>  0.0054  0.0328  0.0413  0.1528  0.0001  0.0011  0.0002  0.0005  0.0003 </r>
       </set>
       <set comment="band 8">
        <r>  0.0226  0.0356  0.0448  0.0244  0.0000  0.0017  0.0006  0.0014  0.0001 </r>
        <r>  0.0045  0.0191  0.0015  0.1264  0.0004  0.0008  0.0002  0.0025  0.0002 </r>
        <r>  0.0198  0.0258  0.0588  0.0779  0.0003  0.0004  0.0005  0.0012  0.0001 </r>
       </set>
       <set comment="band 9">
        <r>  0.0038  0.1443  0.0394  0.0194  0.0007  0.0018  0.0002  0.0002  0.0002 </r>
        <r>  0.0187  0.0594  0.0552  0.0199  0.0003  0.0020  0.0005  0.0006  0.0006 </r>
        <r>  0.0131  0.0889  0.0196  0.0013  0.0000  0.0043  0.0007  0.0003  0.0006 </r>
       </set>
       <set comment="band 10">
        <r>  0.0062  0.0810  0.0552  0.0086  0.0048  0.0032  0.0002  0.0004  0.0010 </r>
        <r>  0.0167  0.1116  0.0693  0.0186  0.0011  0.0034  0.0016  0.0004  0.0026 </r>
        <r>  0.0060  0.1191  0.0742  0.0026  0.0001  0.0036  0.0019  0.0002  0.0000 </r>
       </set>
       <set comment="band 11">
        <r>  0.0052  0.0298  0.0351  0.1209  0.0001  0.0011  0.0021  0.0009  0.0005 </r>
        <r>  0.0015  0.0256  0.1252  0.0574  0.0018  0.0021  0.0026  0.0032  0.0006 </r>
        <r>  0.0003  0.0639  0.0689  0.0495  0.0048  0.0005  0.0005  0.0007  0.0044 </r>
       </set>
       <set comment="band 12">
        <r>  0.0013  0.0293  0.1326  0.0667  0.0011  0.0014  0.0012  0.0029  0.0004 </r>
        <r>  0.0002  0.0438  0.0364  0.1031  0.0018  0.0013  0.0001  0.0017  0.0019 </r>
        <r>  0.0061  0.0184  0.0782  0.1192  0.0007  0.0016  0.0004  0.0028  0.0003 </r>
       </set>
       <set comment="band 13">
        <r>  0.0003  0.0203  0.0085  0.0355  0.0121  0.0101  0.0099  0.0025  0.0117 </r>
        <r>  0.0009  0.0101  0.0024  0.0052  0.0207  0.0050  0.0062  0.0029  0.0039 </r>
        <r>  0.0018  0.0127  0.0110  0.0101  0.0189  0.0014  0.0088  0.0088  0.0024 </r>
       </set>
       <set comment="band 14">
        <r>  0.0006  0.0141  0.0030  0.0148  0.0170  0.0029  0.0028  0.0035  0.0236 </r>
        <r>  0.0013  0.0231  0.0042  0.0051  0.0039  0.0003  0.0243  0.0125  0.0027 </r>
        <r>  0.0023  0.0097  0.0019  0.0267  0.0030  0.0046  0.0011  0.0031  0.0360 </r>
       </set>
       <set comment="band 15">
        <r>  0.0052  0.0060  0.0029  0.0192  0.0148  0.0026  0.0201  0.0014  0.0032 </r>
        <r>  0.0015  0.0082  0.0067  0.0326  0.0099  0.0045  0.0021  0.0022  0.0369 </r>
        <r>  0.0005  0.0086  0.0021  0.0150  0.0139  0.0078  0.0259  0.0008  0.0021 </r>
       </set>
       <set comment="band 16">
        <r>  0.0137  0.0008  0.0057  0.0023  0.0038  0.0180  0.0118  0.0533  0.0024 </r>
        <r>  0.0132  0.0004  0.0055  0.0054  0.0096  0.0417  0.0083  0.0366  0.0044 </r>
        <r>  0.0253  0.0025  0.0054  0.0012  0.0287  0.0131  0.0119  0.0196  0.0064 </r>
       </set>
       <set comment="band 17">
        <r>  0.0241  0.0066  0.0103  0.0056  0.0120  0.0143  0.0070  0.0073  0.0181 </r>
        <r>  0.0140  0.0270  0.0093  0.0020  0.0180  0.0109  0.0068  0.0070  0.0133 </r>
        <r>  0.0007  0.0103  0.0229  0.0132  0.0027  0.0491  0.0017  0.0068  0.0077 </r>
       </set>
       <set comment="band 18">
        <r>  0.0134  0.0111  0.0018  0.0081  0.0033  0.0102  0.0359  0.0457  0.0046 </r>
        <r>  0.0215  0.0002  0.0056  0.0109  0.0088  0.0006  0.0322  0.0181  0.0049 </r>
        <r>  0.0028  0.0028  0.0040  0.0002  0.0095  0.0208  0.0207  0.0904  0.0016 </r>
       </set>
       <set comment="band 19">
        <r>  0.0066  0.0106  0.0082  0.0051  0.0190  0.0502  0.0031  0.0034  0.0173 </r>
        <r>  0.0019  0.0027  0.0007  0.0001  0.0100  0.0521  0.0173  0.0426  0.0044 </r>
        <r>  0.0276  0.0128  0.0073  0.0102  0.0056  0.0261  0.0232  0.0035  0.0006 </r>
       </set>
       <set comment="band 20">
        <r>  0.0023  0.0016  0.0046  0.0025  0.0114  0.0525  0.0176  0.0146  0.0080 </r>
        <r>  0.0085  0.0065  0.0002  0.0055  0.0348  0.0124  0.0056  0.0199  0.0132 </r>
        <r>  0.0088  0.0080  0.0045  0.0021  0.0248  0.0070  0.0351  0.0148  0.0104 </r>
       </set>
       <set comment="band 21">
        <r>  0.0040  0.0050  0.0109  0.0043  0.0153  0.0132  0.0386  0.0068  0.0171 </r>
        <r>  0.0033  0.0044  0.0158  0.0010  0.0012  0.0257  0.0351  0.0003  0.0196 </r>
        <r>  0.0014  0.0050  0.0023  0.0019  0.0048  0.0100  0.0075  0.0082  0.0622 </r>
       </set>
       <set comment="band 22">
        <r>  0.0011  0.0159  0.0014  0.0181  0.0061  0.0054  0.0555  0.0053  0.0784 </r>
        <r>  0.0007  0.0019  0.0056  0.0030  0.0055  0.0050  0.0137  0.0092  0.0086 </r>
        <r>  0.0021  0.0076  0.0019  0.0095  0.0262  0.0066  0.0666  0.0077  0.0486 </r>
       </set>
       <set comment="band 23">
        <r>  0.0016  0.0002  0.0070  0.0047  0.0170  0.0008  0.0356  0.0144  0.0740 </r>
        <r>  0.0014  0.0012  0.0034  0.0150  0.0184  0.0070  0.0789  0.0092  0.0148 </r>
        <r>  0.0018  0.0133  0.0044  0.0079  0.0121  0.0050  0.0220  0.0024  0.0172 </r>
       </set>
       <set comment="band 24">
        <r>  0.0022  0.0039  0.0103  0.0070  0.0032  0.0086  0.0067  0.0142  0.0159 </r>
        <r>  0.0001  0.0121  0.0035  0.0241  0.0020  0.0169  0.0177  0.0035  0.1256 </r>
        <r>  0.0013  0.0098  0.0066  0.0002  0.0248  0.0043  0.0021  0.0271  0.0112 </r>
       </set>
       <set comment="band 25">
        <r>  0.0026  0.0085  0.0167  0.0131  0.0136  0.0075  0.0282  0.0121  0.0053 </r>
        <r>  0.0004  0.0153  0.0129  0.0102  0.0355  0.0007  0.0207  0.0058  0.0358 </r>
        <r>  0.0026  0.0035  0.0035  0.0133  0.0086  0.0519  0.0601  0.0088  0.0521 </r>
       </set>
       <set comment="band 26">
        <r>  0.0027  0.0337  0.0087  0.0038  0.0098  0.0110  0.0115  0.0414  0.0217 </r>
        <r>  0.0074  0.0086  0.0036  0.0153  0.0297  0.0321  0.0079  0.0016  0.0142 </r>
        <r>  0.0006  0.0003  0.0218  0.0182  0.0210  0.0250  0.0071  0.0011  0.0456 </r>
       </set>
       <set comment="band 27">
        <r>  0.0021  0.0014  0.0102  0.0022  0.0745  0.0128  0.0454  0.0045  0.0064 </r>
        <r>  0.0002  0.0146  0.0094  0.0060  0.0621  0.0032  0.0172  0.0134  0.0105 </r>
        <r>  0.0017  0.0020  0.0126  0.0003  0.0177  0.0071  0.0316  0.0134  0.0017 </r>
       </set>
       <set comment="band 28">
        <r>  0.0099  0.0172  0.0039  0.0026  0.0517  0.0417  0.0119  0.0034  0.0053 </r>
        <r>  0.0013  0.0158  0.0076  0.0004  0.0328  0.0431  0.0179  0.0305  0.0143 </r>
        <r>  0.0066  0.0348  0.0010  0.0080  0.0398  0.0237  0.0187  0.0133  0.0027 </r>
       </set>
       <set comment="band 29">
        <r>  0.0036  0.0016  0.0045  0.0213  0.0042  0.0142  0.0084  0.0156  0.0023 </r>
        <r>  0.0011  0.0147  0.0237  0.0057  0.0253  0.0287  0.0344  0.0147  0.0110 </r>
        <r>  0.0000  0.0035  0.0101  0.0302  0.0298  0.0250  0.0153  0.0022  0.0285 </r>
       </set>
       <set comment="band 30">
        <r>  0.0024  0.0069  0.0039  0.0114  0.0221  0.0014  0.0244  0.0178  0.0560 </r>
        <r>  0.0008  0.0074  0.0061  0.0181  0.0225  0.0026  0.0563  0.0076  0.0401 </r>
        <r>  0.0069  0.0069  0.0074  0.0138  0.0049  0.0023  0.0036  0.0004  0.0343 </r>
       </set>
       <set comment="band 31">
        <r>  0.0004  0.0086  0.0125  0.0027  0.0608  0.0072  0.0019  0.0862  0.0000 </r>
        <r>  0.0082  0.0067  0.0062  0.0020  0.0307  0.0196  0.0075  0.1298  0.0103 </r>
        <r>  0.0044  0.0044  0.0094  0.0040  0.0274  0.0250  0.0021  0.1142  0.0084 </r>
       </set>
       <set comment="band 32">
        <r>  0.0004  0.0065  0.0001  0.0100  0.0291  0.0381  0.0038  0.0193  0.0430 </r>
        <r>  0.0058  0.0001  0.0013  0.0182  0.0122  0.0410  0.0003  0.0081  0.0067 </r>
        <r>  0.0048  0.0134  0.0131  0.0036  0.1167  0.0060  0.0128  0.0173  0.0115 </r>
       </set>
      </set>
      <set comment="kpoint 26">
       <set comment="band 1">
        <r>  0.2028  0.0000  0.0014  0.0014  0.0000  0.0001  0.0000  0.0000  0.0000 </r>
        <r>  0.2028  0.0010  0.0014  0.0004  0.0000  0.0000  0.0000  0.0001  0.0000 </r>
        <r>  0.2028  0.0010  0.0014  0.0004  0.0000  0.0000  0.0000  0.0001  0.0000 </r>
       </set>
       <set comment="band 2">
        <r>  0.2085  0.0004  0.0104  0.0004  0.0001  0.0000  0.0000  0.0003  0.0000 </r>
        <r>  0.2085  0.0004  0.0104  0.0004  0.0000  0.0002  0.0000  0.0001  0.0001 </r>
        <r>  0.2085  0.0004  0.0104  0.0004  0.0000  0.0002  0.0000  0.0001  0.0001 </r>
       </set>
       <set comment="band 3">
        <r>  0.2492  0.0005  0.0093  0.0004  0.0001  0.0000  0.0001  0.0002  0.0000 </r>
        <r>  0.2492  0.0005  0.0093  0.0005  0.0000  0.0002  0.0001  0.0001  0.0001 </r>
        <r>  0.2492  0.0005  0.0093  0.0005  0.0000  0.0002  0.0001  0.0001  0.0001 </r>
       </set>
       <set comment="band 4">
        <r>  0.0228  0.0212  0.1265  0.0122  0.0010  0.0001  0.0002  0.0018  0.0000 </r>
        <r>  0.0228  0.0144  0.1265  0.0189  0.0003  0.0014  0.0002  0.0005  0.0008 </r>
        <r>  0.0228  0.0144  0.1265  0.0189  0.0003  0.0014  0.0002  0.0005  0.0008 </r>
       </set>
       <set comment="band 5">
        <r>  0.0004  0.0064  0.0010  0.1582  0.0000  0.0008  0.0004  0.0004  0.0012 </r>
        <r>  0.0004  0.1203  0.0010  0.0444  0.0009  0.0005  0.0004  0.0007  0.0003 </r>
        <r>  0.0004  0.1203  0.0010  0.0444  0.0009  0.0005  0.0004  0.0007  0.0003 </r>
       </set>
       <set comment="band 6">
        <r>  0.0081  0.0527  0.0182  0.0993  0.0002  0.0003  0.0000  0.0015  0.0000 </r>
        <r>  0.0081  0.0877  0.0182  0.0644  0.0001  0.0012  0.0000  0.0006  0.0001 </r>
        <r>  0.0081  0.0877  0.0182  0.0644  0.0001  0.0012  0.0000  0.0006  0.0001 </r>
       </set>
       <set comment="band 7">
        <r>  0.0022  0.1322  0.0222  0.0048  0.0012  0.0000  0.0004  0.0007  0.0008 </r>
        <r>  0.0022  0.0366  0.0222  0.1004  0.0009  0.0005  0.0004  0.0002  0.0011 </r>
        <r>  0.0022  0.0366  0.0222  0.1004  0.0009  0.0005  0.0004  0.0002  0.0011 </r>
       </set>
       <set comment="band 8">
        <r>  0.0245  0.0642  0.0728  0.0042  0.0003  0.0000  0.0017  0.0001  0.0016 </r>
        <r>  0.0245  0.0192  0.0728  0.0492  0.0013  0.0000  0.0017  0.0000  0.0006 </r>
        <r>  0.0245  0.0192  0.0728  0.0492  0.0013  0.0000  0.0017  0.0000  0.0006 </r>
       </set>
       <set comment="band 9">
        <r>  0.0013  0.1462  0.0184  0.0041  0.0007  0.0000  0.0000  0.0007  0.0010 </r>
        <r>  0.0013  0.0396  0.0184  0.1107  0.0009  0.0005  0.0000  0.0002  0.0008 </r>
        <r>  0.0013  0.0396  0.0184  0.1107  0.0009  0.0005  0.0000  0.0002  0.0008 </r>
       </set>
       <set comment="band 10">
        <r>  0.0178  0.0500  0.0318  0.0641  0.0004  0.0001  0.0006  0.0052  0.0015 </r>
        <r>  0.0178  0.0606  0.0318  0.0535  0.0012  0.0039  0.0006  0.0014  0.0007 </r>
        <r>  0.0177  0.0605  0.0318  0.0535  0.0012  0.0039  0.0006  0.0014  0.0007 </r>
       </set>
       <set comment="band 11">
        <r>  0.0030  0.0137  0.0042  0.1463  0.0003  0.0033  0.0025  0.0001  0.0026 </r>
        <r>  0.0030  0.1131  0.0042  0.0468  0.0020  0.0009  0.0025  0.0025  0.0009 </r>
        <r>  0.0030  0.1131  0.0042  0.0469  0.0020  0.0009  0.0025  0.0025  0.0009 </r>
       </set>
       <set comment="band 12">
        <r>  0.0162  0.0117  0.1323  0.0007  0.0047  0.0001  0.0008  0.0021  0.0001 </r>
        <r>  0.0162  0.0034  0.1323  0.0089  0.0012  0.0016  0.0008  0.0006  0.0035 </r>
        <r>  0.0162  0.0034  0.1323  0.0089  0.0012  0.0016  0.0008  0.0006  0.0035 </r>
       </set>
       <set comment="band 13">
        <r>  0.0003  0.0035  0.0078  0.0017  0.0016  0.0014  0.0483  0.0000  0.0030 </r>
        <r>  0.0003  0.0022  0.0078  0.0030  0.0026  0.0003  0.0483  0.0010  0.0019 </r>
        <r>  0.0003  0.0022  0.0078  0.0030  0.0026  0.0003  0.0483  0.0010  0.0019 </r>
       </set>
       <set comment="band 14">
        <r>  0.0008  0.0010  0.0011  0.0010  0.0247  0.0194  0.0000  0.0042  0.0178 </r>
        <r>  0.0008  0.0010  0.0011  0.0010  0.0195  0.0080  0.0000  0.0156  0.0230 </r>
        <r>  0.0008  0.0010  0.0011  0.0010  0.0196  0.0080  0.0000  0.0156  0.0230 </r>
       </set>
       <set comment="band 15">
        <r>  0.0004  0.0041  0.0034  0.0000  0.0376  0.0188  0.0019  0.0022  0.0092 </r>
        <r>  0.0004  0.0010  0.0034  0.0031  0.0163  0.0063  0.0019  0.0146  0.0305 </r>
        <r>  0.0004  0.0010  0.0034  0.0031  0.0163  0.0063  0.0019  0.0147  0.0305 </r>
       </set>
       <set comment="band 16">
        <r>  0.0000  0.0040  0.0387  0.0058  0.0026  0.0061  0.0188  0.0117  0.0163 </r>
        <r>  0.0000  0.0054  0.0387  0.0045  0.0129  0.0103  0.0188  0.0075  0.0060 </r>
        <r>  0.0000  0.0054  0.0387  0.0045  0.0129  0.0103  0.0188  0.0075  0.0060 </r>
       </set>
       <set comment="band 17">
        <r>  0.0017  0.0005  0.0001  0.0140  0.0016  0.0106  0.0005  0.0474  0.0311 </r>
        <r>  0.0017  0.0106  0.0001  0.0039  0.0237  0.0382  0.0005  0.0198  0.0090 </r>
        <r>  0.0017  0.0106  0.0001  0.0039  0.0237  0.0382  0.0005  0.0198  0.0090 </r>
       </set>
       <set comment="band 18">
        <r>  0.0483  0.0000  0.0383  0.0046  0.0003  0.0063  0.0006  0.0000  0.0001 </r>
        <r>  0.0483  0.0035  0.0383  0.0012  0.0002  0.0016  0.0006  0.0047  0.0003 </r>
        <r>  0.0483  0.0035  0.0383  0.0012  0.0002  0.0016  0.0006  0.0047  0.0003 </r>
       </set>
       <set comment="band 19">
        <r>  0.0000  0.0002  0.0001  0.0012  0.0109  0.0014  0.0086  0.0095  0.0004 </r>
        <r>  0.0000  0.0010  0.0001  0.0005  0.0030  0.0075  0.0086  0.0034  0.0082 </r>
        <r>  0.0000  0.0010  0.0001  0.0005  0.0030  0.0075  0.0086  0.0034  0.0082 </r>
       </set>
       <set comment="band 20">
        <r>  0.0000  0.0070  0.0168  0.0034  0.0020  0.0233  0.0137  0.0205  0.0154 </r>
        <r>  0.0000  0.0043  0.0168  0.0061  0.0120  0.0212  0.0137  0.0226  0.0053 </r>
        <r>  0.0000  0.0043  0.0168  0.0061  0.0120  0.0212  0.0137  0.0226  0.0053 </r>
       </set>
       <set comment="band 21">
        <r>  0.0004  0.0129  0.0043  0.0048  0.0201  0.0208  0.0006  0.0058  0.0251 </r>
        <r>  0.0004  0.0068  0.0043  0.0109  0.0239  0.0095  0.0006  0.0170  0.0214 </r>
        <r>  0.0004  0.0068  0.0043  0.0109  0.0239  0.0095  0.0006  0.0170  0.0214 </r>
       </set>
       <set comment="band 22">
        <r>  0.0000  0.0110  0.0001  0.0002  0.0378  0.0287  0.0001  0.0001  0.0047 </r>
        <r>  0.0000  0.0029  0.0001  0.0083  0.0130  0.0072  0.0001  0.0215  0.0295 </r>
        <r>  0.0000  0.0029  0.0001  0.0083  0.0130  0.0072  0.0001  0.0215  0.0295 </r>
       </set>
       <set comment="band 23">
        <r>  0.0010  0.0026  0.0016  0.0271  0.0023  0.0080  0.0017  0.0945  0.0175 </r>
        <r>  0.0010  0.0209  0.0016  0.0087  0.0137  0.0729  0.0017  0.0296  0.0061 </r>
        <r>  0.0010  0.0209  0.0016  0.0087  0.0137  0.0729  0.0017  0.0296  0.0061 </r>
       </set>
       <set comment="band 24">
        <r>  0.0108  0.0128  0.0090  0.0050  0.0085  0.0455  0.0186  0.0317  0.0178 </r>
        <r>  0.0108  0.0069  0.0090  0.0109  0.0154  0.0352  0.0186  0.0421  0.0108 </r>
        <r>  0.0108  0.0069  0.0090  0.0109  0.0154  0.0352  0.0186  0.0421  0.0108 </r>
       </set>
       <set comment="band 25">
        <r>  0.0141  0.0085  0.0202  0.0010  0.0216  0.0267  0.0049  0.0092  0.0202 </r>
        <r>  0.0141  0.0029  0.0202  0.0066  0.0205  0.0136  0.0049  0.0224  0.0212 </r>
        <r>  0.0141  0.0029  0.0202  0.0066  0.0205  0.0136  0.0049  0.0224  0.0212 </r>
       </set>
       <set comment="band 26">
        <r>  0.0002  0.0004  0.0033  0.0033  0.0000  0.0118  0.0469  0.0022  0.0003 </r>
        <r>  0.0002  0.0026  0.0033  0.0012  0.0003  0.0046  0.0469  0.0094  0.0001 </r>
        <r>  0.0002  0.0026  0.0033  0.0012  0.0003  0.0046  0.0469  0.0094  0.0001 </r>
       </set>
       <set comment="band 27">
        <r>  0.0051  0.0033  0.0186  0.0044  0.0017  0.0190  0.0621  0.0157  0.0090 </r>
        <r>  0.0051  0.0041  0.0186  0.0036  0.0072  0.0166  0.0621  0.0182  0.0035 </r>
        <r>  0.0051  0.0041  0.0186  0.0036  0.0072  0.0166  0.0621  0.0182  0.0035 </r>
       </set>
       <set comment="band 28">
        <r>  0.0187  0.0033  0.0162  0.0067  0.0019  0.0178  0.0399  0.0182  0.0101 </r>
        <r>  0.0187  0.0059  0.0162  0.0042  0.0081  0.0181  0.0399  0.0179  0.0040 </r>
        <r>  0.0187  0.0059  0.0162  0.0042  0.0081  0.0181  0.0399  0.0179  0.0040 </r>
       </set>
       <set comment="band 29">
        <r>  0.0000  0.0096  0.0001  0.0000  0.0555  0.0591  0.0001  0.0006  0.0066 </r>
        <r>  0.0000  0.0024  0.0001  0.0072  0.0189  0.0152  0.0001  0.0445  0.0433 </r>
        <r>  0.0000  0.0024  0.0001  0.0072  0.0189  0.0152  0.0001  0.0445  0.0433 </r>
       </set>
       <set comment="band 30">
        <r>  0.0003  0.0098  0.0102  0.0077  0.0117  0.0689  0.0816  0.0365  0.0634 </r>
        <r>  0.0003  0.0081  0.0101  0.0092  0.0518  0.0440  0.0817  0.0605  0.0246 </r>
        <r>  0.0003  0.0083  0.0101  0.0095  0.0494  0.0442  0.0812  0.0620  0.0245 </r>
       </set>
       <set comment="band 31">
        <r>  0.0022  0.0036  0.0003  0.0179  0.0098  0.0198  0.0003  0.1619  0.0442 </r>
        <r>  0.0023  0.0144  0.0003  0.0071  0.0337  0.1281  0.0003  0.0556  0.0178 </r>
        <r>  0.0023  0.0145  0.0003  0.0070  0.0348  0.1278  0.0004  0.0546  0.0181 </r>
       </set>
       <set comment="band 32">
        <r>  0.0027  0.0015  0.0022  0.0041  0.0087  0.0179  0.1591  0.0326  0.0526 </r>
        <r>  0.0026  0.0037  0.0026  0.0019  0.0338  0.0260  0.1626  0.0269  0.0171 </r>
        <r>  0.0031  0.0033  0.0015  0.0017  0.0587  0.0300  0.1505  0.0171  0.0270 </r>
       </set>
      </set>
      <set comment="kpoint 27">
       <set comment="band 1">
        <r>  0.2015  0.0002  0.0014  0.0018  0.0000  0.0001  0.0000  0.0001  0.0000 </r>
        <r>  0.2079  0.0012  0.0013  0.0004  0.0001  0.0001  0.0000  0.0001  0.0000 </r>
        <r>  0.2016  0.0012  0.0014  0.0008  0.0000  0.0001  0.0000  0.0001  0.0000 </r>
       </set>
       <set comment="band 2">
        <r>  0.2155  0.0003  0.0096  0.0007  0.0001  0.0001  0.0000  0.0003  0.0000 </r>
        <r>  0.2007  0.0004  0.0102  0.0008  0.0000  0.0002  0.0000  0.0001  0.0001 </r>
        <r>  0.2155  0.0006  0.0096  0.0004  0.0001  0.0002  0.0000  0.0002  0.0001 </r>
       </set>
       <set comment="band 3">
        <r>  0.2437  0.0002  0.0075  0.0020  0.0001  0.0001  0.0000  0.0002  0.0000 </r>
        <r>  0.2548  0.0007  0.0076  0.0019  0.0000  0.0002  0.0000  0.0001  0.0001 </r>
        <r>  0.2436  0.0016  0.0075  0.0006  0.0001  0.0001  0.0000  0.0001  0.0001 </r>
       </set>
       <set comment="band 4">
        <r>  0.0102  0.0381  0.0941  0.0515  0.0008  0.0002  0.0006  0.0020  0.0000 </r>
        <r>  0.0025  0.0011  0.1031  0.0011  0.0002  0.0004  0.0002  0.0003  0.0005 </r>
        <r>  0.0102  0.0148  0.0941  0.0748  0.0004  0.0010  0.0006  0.0012  0.0005 </r>
       </set>
       <set comment="band 5">
        <r>  0.0044  0.0118  0.0319  0.0720  0.0001  0.0005  0.0005  0.0010  0.0010 </r>
        <r>  0.0203  0.1666  0.0001  0.0709  0.0012  0.0005  0.0001  0.0007  0.0008 </r>
        <r>  0.0044  0.0738  0.0319  0.0100  0.0005  0.0014  0.0005  0.0001  0.0005 </r>
       </set>
       <set comment="band 6">
        <r>  0.0224  0.0219  0.0290  0.1063  0.0005  0.0001  0.0001  0.0003  0.0002 </r>
        <r>  0.0043  0.0380  0.0485  0.0769  0.0003  0.0024  0.0005  0.0012  0.0004 </r>
        <r>  0.0224  0.1254  0.0290  0.0028  0.0003  0.0004  0.0001  0.0000  0.0004 </r>
       </set>
       <set comment="band 7">
        <r>  0.0042  0.1308  0.0598  0.0082  0.0010  0.0003  0.0003  0.0009  0.0003 </r>
        <r>  0.0242  0.0226  0.0200  0.0076  0.0018  0.0002  0.0012  0.0001  0.0006 </r>
        <r>  0.0042  0.0206  0.0598  0.1183  0.0001  0.0011  0.0003  0.0001  0.0011 </r>
       </set>
       <set comment="band 8">
        <r>  0.0122  0.0106  0.0108  0.0470  0.0004  0.0007  0.0006  0.0016  0.0019 </r>
        <r>  0.0022  0.0707  0.0738  0.1810  0.0006  0.0003  0.0000  0.0003  0.0005 </r>
        <r>  0.0122  0.0268  0.0108  0.0309  0.0023  0.0005  0.0006  0.0018  0.0000 </r>
       </set>
       <set comment="band 9">
        <r>  0.0113  0.1722  0.0339  0.0044  0.0005  0.0004  0.0002  0.0004  0.0004 </r>
        <r>  0.0017  0.0128  0.0159  0.0265  0.0003  0.0008  0.0005  0.0003  0.0007 </r>
        <r>  0.0113  0.0551  0.0339  0.1215  0.0002  0.0008  0.0002  0.0000  0.0006 </r>
       </set>
       <set comment="band 10">
        <r>  0.0105  0.0133  0.0221  0.1407  0.0007  0.0013  0.0009  0.0019  0.0023 </r>
        <r>  0.0043  0.0645  0.0293  0.0452  0.0025  0.0010  0.0046  0.0030  0.0008 </r>
        <r>  0.0105  0.0908  0.0221  0.0631  0.0026  0.0010  0.0009  0.0022  0.0004 </r>
       </set>
       <set comment="band 11">
        <r>  0.0078  0.1041  0.0438  0.0198  0.0014  0.0002  0.0011  0.0038  0.0006 </r>
        <r>  0.0289  0.1091  0.0124  0.0405  0.0009  0.0007  0.0000  0.0007  0.0005 </r>
        <r>  0.0078  0.0632  0.0438  0.0607  0.0000  0.0031  0.0011  0.0009  0.0019 </r>
       </set>
       <set comment="band 12">
        <r>  0.0079  0.0006  0.1134  0.0386  0.0048  0.0004  0.0018  0.0007  0.0003 </r>
        <r>  0.0037  0.0123  0.1421  0.0364  0.0006  0.0048  0.0000  0.0016  0.0017 </r>
        <r>  0.0079  0.0258  0.1134  0.0134  0.0023  0.0009  0.0018  0.0001  0.0028 </r>
       </set>
       <set comment="band 13">
        <r>  0.0011  0.0002  0.0122  0.0043  0.0050  0.0003  0.0375  0.0009  0.0061 </r>
        <r>  0.0000  0.0051  0.0001  0.0131  0.0007  0.0019  0.0419  0.0051  0.0020 </r>
        <r>  0.0011  0.0036  0.0122  0.0009  0.0100  0.0010  0.0375  0.0002  0.0011 </r>
       </set>
       <set comment="band 14">
        <r>  0.0001  0.0003  0.0024  0.0014  0.0176  0.0243  0.0096  0.0078  0.0098 </r>
        <r>  0.0002  0.0009  0.0180  0.0015  0.0206  0.0003  0.0000  0.0008  0.0392 </r>
        <r>  0.0001  0.0008  0.0024  0.0009  0.0052  0.0181  0.0096  0.0140  0.0221 </r>
       </set>
       <set comment="band 15">
        <r>  0.0008  0.0004  0.0143  0.0032  0.0007  0.0099  0.0152  0.0107  0.0316 </r>
        <r>  0.0000  0.0037  0.0207  0.0040  0.0030  0.0275  0.0043  0.0132  0.0010 </r>
        <r>  0.0008  0.0020  0.0143  0.0016  0.0213  0.0123  0.0152  0.0083  0.0110 </r>
       </set>
       <set comment="band 16">
        <r>  0.0004  0.0085  0.0095  0.0000  0.0278  0.0077  0.0067  0.0033  0.0032 </r>
        <r>  0.0001  0.0030  0.0001  0.0037  0.0270  0.0083  0.0200  0.0166  0.0228 </r>
        <r>  0.0004  0.0019  0.0095  0.0066  0.0117  0.0005  0.0067  0.0105  0.0193 </r>
       </set>
       <set comment="band 17">
        <r>  0.0422  0.0005  0.0074  0.0049  0.0038  0.0066  0.0018  0.0203  0.0094 </r>
        <r>  0.0355  0.0027  0.0173  0.0009  0.0092  0.0029  0.0000  0.0069  0.0032 </r>
        <r>  0.0422  0.0046  0.0074  0.0008  0.0128  0.0070  0.0018  0.0199  0.0004 </r>
       </set>
       <set comment="band 18">
        <r>  0.0006  0.0029  0.0067  0.0027  0.0182  0.0424  0.0049  0.0032  0.0196 </r>
        <r>  0.0018  0.0066  0.0039  0.0056  0.0029  0.0355  0.0025  0.0184  0.0061 </r>
        <r>  0.0006  0.0049  0.0067  0.0006  0.0090  0.0228  0.0049  0.0228  0.0288 </r>
       </set>
       <set comment="band 19">
        <r>  0.0029  0.0065  0.0430  0.0254  0.0121  0.0032  0.0007  0.0187  0.0034 </r>
        <r>  0.0144  0.0010  0.0022  0.0012  0.0480  0.0012  0.0127  0.0035  0.0167 </r>
        <r>  0.0029  0.0102  0.0430  0.0217  0.0088  0.0110  0.0007  0.0109  0.0067 </r>
       </set>
       <set comment="band 20">
        <r>  0.0011  0.0032  0.0003  0.0012  0.0186  0.0007  0.0051  0.0180  0.0032 </r>
        <r>  0.0001  0.0017  0.0003  0.0049  0.0038  0.0142  0.0046  0.0108  0.0098 </r>
        <r>  0.0011  0.0007  0.0003  0.0037  0.0087  0.0153  0.0051  0.0034  0.0131 </r>
       </set>
       <set comment="band 21">
        <r>  0.0011  0.0039  0.0092  0.0056  0.0073  0.0140  0.0085  0.0128  0.0323 </r>
        <r>  0.0005  0.0061  0.0211  0.0135  0.0046  0.0115  0.0107  0.0346  0.0121 </r>
        <r>  0.0011  0.0087  0.0092  0.0008  0.0334  0.0245  0.0085  0.0023  0.0062 </r>
       </set>
       <set comment="band 22">
        <r>  0.0001  0.0159  0.0070  0.0030  0.0256  0.0247  0.0067  0.0028  0.0121 </r>
        <r>  0.0003  0.0051  0.0130  0.0082  0.0172  0.0135  0.0001  0.0290  0.0326 </r>
        <r>  0.0001  0.0022  0.0070  0.0167  0.0110  0.0011  0.0067  0.0264  0.0267 </r>
       </set>
       <set comment="band 23">
        <r>  0.0197  0.0008  0.0015  0.0096  0.0132  0.0128  0.0155  0.0897  0.0084 </r>
        <r>  0.0021  0.0060  0.0039  0.0106  0.0088  0.0144  0.0001  0.0286  0.0031 </r>
        <r>  0.0197  0.0063  0.0015  0.0040  0.0148  0.0431  0.0155  0.0594  0.0068 </r>
       </set>
       <set comment="band 24">
        <r>  0.0041  0.0106  0.0032  0.0029  0.0201  0.0481  0.0173  0.0003  0.0209 </r>
        <r>  0.0122  0.0059  0.0159  0.0026  0.0094  0.0542  0.0212  0.0206  0.0054 </r>
        <r>  0.0041  0.0087  0.0032  0.0048  0.0031  0.0131  0.0173  0.0352  0.0379 </r>
       </set>
       <set comment="band 25">
        <r>  0.0056  0.0022  0.0096  0.0010  0.0080  0.0060  0.0105  0.0224  0.0240 </r>
        <r>  0.0104  0.0222  0.0143  0.0094  0.0028  0.0533  0.0426  0.0476  0.0011 </r>
        <r>  0.0056  0.0019  0.0096  0.0013  0.0315  0.0273  0.0105  0.0010  0.0005 </r>
       </set>
       <set comment="band 26">
        <r>  0.0003  0.0013  0.0047  0.0028  0.0031  0.0015  0.0386  0.0082  0.0010 </r>
        <r>  0.0004  0.0014  0.0031  0.0006  0.0051  0.0128  0.0650  0.0050  0.0054 </r>
        <r>  0.0003  0.0025  0.0047  0.0016  0.0003  0.0072  0.0386  0.0025  0.0038 </r>
       </set>
       <set comment="band 27">
        <r>  0.0021  0.0147  0.0051  0.0105  0.0054  0.0759  0.0208  0.0261  0.0188 </r>
        <r>  0.0036  0.0039  0.0070  0.0037  0.0179  0.0103  0.0088  0.0051  0.0503 </r>
        <r>  0.0021  0.0164  0.0051  0.0088  0.0069  0.0644  0.0208  0.0375  0.0173 </r>
       </set>
       <set comment="band 28">
        <r>  0.0178  0.0037  0.0304  0.0175  0.0007  0.0095  0.0573  0.0256  0.0079 </r>
        <r>  0.0102  0.0049  0.0087  0.0106  0.0114  0.0078  0.0163  0.0232  0.0051 </r>
        <r>  0.0178  0.0114  0.0304  0.0098  0.0067  0.0204  0.0573  0.0147  0.0020 </r>
       </set>
       <set comment="band 29">
        <r>  0.0000  0.0072  0.0026  0.0043  0.0547  0.0463  0.0366  0.0065  0.0000 </r>
        <r>  0.0006  0.0036  0.0108  0.0095  0.0393  0.0166  0.0430  0.0391  0.0270 </r>
        <r>  0.0000  0.0004  0.0026  0.0112  0.0135  0.0055  0.0366  0.0473  0.0411 </r>
       </set>
       <set comment="band 30">
        <r>  0.0009  0.0113  0.0012  0.0073  0.0108  0.0050  0.0025  0.0114  0.0901 </r>
        <r>  0.0000  0.0019  0.0039  0.0032  0.0163  0.0187  0.0249  0.0141  0.0283 </r>
        <r>  0.0007  0.0145  0.0013  0.0026  0.0429  0.0167  0.0048  0.0014  0.0486 </r>
       </set>
       <set comment="band 31">
        <r>  0.0052  0.0094  0.0039  0.0118  0.0371  0.0256  0.0665  0.0011  0.0056 </r>
        <r>  0.0040  0.0118  0.0045  0.0060  0.0361  0.0037  0.0101  0.0066  0.0468 </r>
        <r>  0.0055  0.0047  0.0034  0.0174  0.0206  0.0051  0.0638  0.0211  0.0240 </r>
       </set>
       <set comment="band 32">
        <r>  0.0084  0.0025  0.0080  0.0135  0.0057  0.0384  0.0113  0.0978  0.0318 </r>
        <r>  0.0090  0.0194  0.0001  0.0121  0.0433  0.1008  0.0000  0.0430  0.0405 </r>
        <r>  0.0084  0.0107  0.0073  0.0058  0.0350  0.0917  0.0113  0.0395  0.0063 </r>
       </set>
      </set>
      <set comment="kpoint 28">
       <set comment="band 1">
        <r>  0.2054  0.0006  0.0015  0.0013  0.0000  0.0001  0.0000  0.0001  0.0000 </r>
        <r>  0.2027  0.0016  0.0013  0.0004  0.0000  0.0001  0.0000  0.0001  0.0000 </r>
        <r>  0.2027  0.0016  0.0013  0.0004  0.0000  0.0001  0.0000  0.0001  0.0000 </r>
       </set>
       <set comment="band 2">
        <r>  0.2087  0.0003  0.0099  0.0008  0.0001  0.0001  0.0000  0.0002  0.0001 </r>
        <r>  0.2116  0.0004  0.0096  0.0005  0.0000  0.0003  0.0000  0.0001  0.0001 </r>
        <r>  0.2116  0.0004  0.0096  0.0005  0.0000  0.0003  0.0000  0.0001  0.0001 </r>
       </set>
       <set comment="band 3">
        <r>  0.2465  0.0000  0.0068  0.0009  0.0001  0.0001  0.0001  0.0001  0.0001 </r>
        <r>  0.2502  0.0020  0.0079  0.0004  0.0000  0.0003  0.0000  0.0000  0.0001 </r>
        <r>  0.2502  0.0020  0.0079  0.0004  0.0000  0.0003  0.0000  0.0000  0.0001 </r>
       </set>
       <set comment="band 4">
        <r>  0.0182  0.0870  0.0779  0.0013  0.0009  0.0000  0.0005  0.0023  0.0000 </r>
        <r>  0.0108  0.0196  0.1199  0.0130  0.0001  0.0006  0.0002  0.0007  0.0008 </r>
        <r>  0.0108  0.0196  0.1199  0.0130  0.0001  0.0006  0.0002  0.0007  0.0008 </r>
       </set>
       <set comment="band 5">
        <r>  0.0064  0.0190  0.0627  0.0353  0.0000  0.0006  0.0004  0.0006  0.0007 </r>
        <r>  0.0069  0.1263  0.0122  0.0229  0.0006  0.0005  0.0008  0.0001  0.0006 </r>
        <r>  0.0069  0.1263  0.0122  0.0229  0.0006  0.0005  0.0008  0.0001  0.0006 </r>
       </set>
       <set comment="band 6">
        <r>  0.0128  0.0002  0.0084  0.1932  0.0001  0.0004  0.0001  0.0000  0.0000 </r>
        <r>  0.0040  0.0248  0.0180  0.1002  0.0005  0.0009  0.0000  0.0005  0.0003 </r>
        <r>  0.0040  0.0248  0.0180  0.1002  0.0005  0.0009  0.0000  0.0005  0.0003 </r>
       </set>
       <set comment="band 7">
        <r>  0.0083  0.2009  0.0230  0.0023  0.0005  0.0001  0.0002  0.0016  0.0001 </r>
        <r>  0.0078  0.0167  0.0457  0.0754  0.0004  0.0016  0.0002  0.0005  0.0008 </r>
        <r>  0.0078  0.0167  0.0457  0.0754  0.0004  0.0016  0.0002  0.0005  0.0008 </r>
       </set>
       <set comment="band 8">
        <r>  0.0033  0.0439  0.0619  0.0536  0.0002  0.0000  0.0013  0.0008  0.0016 </r>
        <r>  0.0177  0.0623  0.0232  0.0728  0.0013  0.0003  0.0011  0.0008  0.0007 </r>
        <r>  0.0177  0.0623  0.0232  0.0728  0.0013  0.0003  0.0011  0.0008  0.0007 </r>
       </set>
       <set comment="band 9">
        <r>  0.0109  0.0060  0.0302  0.0277  0.0009  0.0000  0.0001  0.0003  0.0033 </r>
        <r>  0.0037  0.0682  0.0417  0.1059  0.0007  0.0015  0.0001  0.0004  0.0002 </r>
        <r>  0.0037  0.0682  0.0417  0.1059  0.0007  0.0015  0.0001  0.0004  0.0002 </r>
       </set>
       <set comment="band 10">
        <r>  0.0024  0.1093  0.0933  0.0172  0.0025  0.0001  0.0005  0.0080  0.0003 </r>
        <r>  0.0274  0.0361  0.0107  0.0589  0.0012  0.0002  0.0007  0.0007  0.0024 </r>
        <r>  0.0274  0.0361  0.0107  0.0589  0.0012  0.0002  0.0007  0.0007  0.0024 </r>
       </set>
       <set comment="band 11">
        <r>  0.0284  0.0077  0.0214  0.1468  0.0008  0.0020  0.0000  0.0011  0.0011 </r>
        <r>  0.0091  0.0410  0.0484  0.0422  0.0024  0.0008  0.0025  0.0044  0.0005 </r>
        <r>  0.0091  0.0410  0.0484  0.0422  0.0024  0.0008  0.0025  0.0044  0.0005 </r>
       </set>
       <set comment="band 12">
        <r>  0.0017  0.0237  0.0463  0.0035  0.0045  0.0011  0.0023  0.0000  0.0000 </r>
        <r>  0.0054  0.0966  0.1258  0.0006  0.0010  0.0045  0.0009  0.0002  0.0013 </r>
        <r>  0.0054  0.0966  0.1258  0.0006  0.0010  0.0045  0.0009  0.0002  0.0013 </r>
       </set>
       <set comment="band 13">
        <r>  0.0002  0.0001  0.0041  0.0037  0.0016  0.0077  0.0293  0.0002  0.0139 </r>
        <r>  0.0007  0.0026  0.0038  0.0018  0.0028  0.0046  0.0261  0.0033  0.0132 </r>
        <r>  0.0007  0.0026  0.0038  0.0018  0.0028  0.0046  0.0261  0.0033  0.0132 </r>
       </set>
       <set comment="band 14">
        <r>  0.0013  0.0007  0.0188  0.0018  0.0021  0.0264  0.0118  0.0025  0.0016 </r>
        <r>  0.0002  0.0021  0.0010  0.0016  0.0059  0.0026  0.0287  0.0017  0.0377 </r>
        <r>  0.0002  0.0021  0.0010  0.0016  0.0059  0.0026  0.0287  0.0017  0.0378 </r>
       </set>
       <set comment="band 15">
        <r>  0.0130  0.0056  0.0050  0.0011  0.0043  0.0064  0.0228  0.0000  0.0427 </r>
        <r>  0.0057  0.0027  0.0129  0.0024  0.0079  0.0318  0.0038  0.0055  0.0026 </r>
        <r>  0.0057  0.0027  0.0129  0.0024  0.0079  0.0318  0.0038  0.0055  0.0026 </r>
       </set>
       <set comment="band 16">
        <r>  0.0032  0.0022  0.0467  0.0052  0.0401  0.0017  0.0102  0.0004  0.0021 </r>
        <r>  0.0010  0.0001  0.0143  0.0023  0.0234  0.0039  0.0126  0.0291  0.0035 </r>
        <r>  0.0010  0.0001  0.0143  0.0023  0.0234  0.0039  0.0126  0.0291  0.0035 </r>
       </set>
       <set comment="band 17">
        <r>  0.0233  0.0051  0.0130  0.0008  0.0137  0.0294  0.0042  0.0129  0.0019 </r>
        <r>  0.0205  0.0129  0.0045  0.0075  0.0145  0.0062  0.0033  0.0001  0.0075 </r>
        <r>  0.0205  0.0129  0.0045  0.0075  0.0145  0.0062  0.0033  0.0001  0.0075 </r>
       </set>
       <set comment="band 18">
        <r>  0.0025  0.0000  0.0059  0.0325  0.0022  0.0014  0.0003  0.0600  0.0021 </r>
        <r>  0.0117  0.0037  0.0137  0.0064  0.0395  0.0045  0.0024  0.0163  0.0023 </r>
        <r>  0.0117  0.0037  0.0137  0.0064  0.0395  0.0045  0.0024  0.0163  0.0023 </r>
       </set>
       <set comment="band 19">
        <r>  0.0007  0.0010  0.0000  0.0061  0.0419  0.0001  0.0082  0.0030  0.0304 </r>
        <r>  0.0018  0.0094  0.0156  0.0042  0.0109  0.0132  0.0016  0.0308  0.0052 </r>
        <r>  0.0018  0.0094  0.0156  0.0042  0.0109  0.0132  0.0016  0.0308  0.0052 </r>
       </set>
       <set comment="band 20">
        <r>  0.0028  0.0254  0.0147  0.0008  0.0165  0.0298  0.0046  0.0141  0.0011 </r>
        <r>  0.0035  0.0051  0.0198  0.0162  0.0131  0.0092  0.0015  0.0233  0.0259 </r>
        <r>  0.0035  0.0051  0.0198  0.0162  0.0131  0.0092  0.0015  0.0233  0.0259 </r>
       </set>
       <set comment="band 21">
        <r>  0.0014  0.0001  0.0011  0.0003  0.0006  0.0065  0.0002  0.0056  0.0000 </r>
        <r>  0.0016  0.0009  0.0072  0.0024  0.0055  0.0225  0.0099  0.0008  0.0106 </r>
        <r>  0.0016  0.0009  0.0072  0.0024  0.0055  0.0225  0.0099  0.0008  0.0106 </r>
       </set>
       <set comment="band 22">
        <r>  0.0004  0.0118  0.0202  0.0005  0.0173  0.0189  0.0033  0.0086  0.0451 </r>
        <r>  0.0011  0.0100  0.0089  0.0065  0.0070  0.0043  0.0057  0.0200  0.0334 </r>
        <r>  0.0011  0.0100  0.0089  0.0065  0.0070  0.0043  0.0057  0.0200  0.0334 </r>
       </set>
       <set comment="band 23">
        <r>  0.0058  0.0002  0.0025  0.0208  0.0151  0.0076  0.0000  0.0766  0.0031 </r>
        <r>  0.0107  0.0034  0.0027  0.0102  0.0138  0.0338  0.0155  0.0444  0.0041 </r>
        <r>  0.0107  0.0034  0.0027  0.0102  0.0138  0.0338  0.0155  0.0444  0.0041 </r>
       </set>
       <set comment="band 24">
        <r>  0.0186  0.0001  0.0069  0.0005  0.0000  0.0118  0.0150  0.0183  0.0320 </r>
        <r>  0.0110  0.0070  0.0066  0.0117  0.0162  0.0633  0.0126  0.0329  0.0043 </r>
        <r>  0.0110  0.0070  0.0066  0.0117  0.0162  0.0633  0.0126  0.0329  0.0043 </r>
       </set>
       <set comment="band 25">
        <r>  0.0148  0.0080  0.0102  0.0161  0.0000  0.0752  0.0491  0.0399  0.0025 </r>
        <r>  0.0062  0.0010  0.0067  0.0034  0.0034  0.0132  0.0109  0.0157  0.0229 </r>
        <r>  0.0062  0.0010  0.0067  0.0034  0.0034  0.0132  0.0109  0.0157  0.0229 </r>
       </set>
       <set comment="band 26">
        <r>  0.0000  0.0044  0.0050  0.0023  0.0074  0.0055  0.0373  0.0119  0.0002 </r>
        <r>  0.0001  0.0047  0.0070  0.0004  0.0054  0.0086  0.0365  0.0061  0.0076 </r>
        <r>  0.0001  0.0047  0.0070  0.0004  0.0054  0.0086  0.0365  0.0061  0.0076 </r>
       </set>
       <set comment="band 27">
        <r>  0.0067  0.0020  0.0072  0.0002  0.0471  0.0000  0.0023  0.0036  0.0137 </r>
        <r>  0.0111  0.0215  0.0194  0.0022  0.0162  0.0288  0.0589  0.0212  0.0041 </r>
        <r>  0.0111  0.0215  0.0194  0.0022  0.0162  0.0288  0.0589  0.0212  0.0041 </r>
       </set>
       <set comment="band 28">
        <r>  0.0011  0.0193  0.0101  0.0001  0.0062  0.0537  0.0642  0.0015  0.0066 </r>
        <r>  0.0014  0.0034  0.0114  0.0056  0.0301  0.0043  0.0476  0.0373  0.0151 </r>
        <r>  0.0014  0.0034  0.0114  0.0056  0.0300  0.0043  0.0475  0.0373  0.0151 </r>
       </set>
       <set comment="band 29">
        <r>  0.0046  0.0157  0.0122  0.0015  0.0647  0.0569  0.0250  0.0174  0.0049 </r>
        <r>  0.0038  0.0109  0.0055  0.0014  0.0231  0.0449  0.0148  0.0230  0.0300 </r>
        <r>  0.0038  0.0109  0.0055  0.0014  0.0232  0.0449  0.0148  0.0229  0.0300 </r>
       </set>
       <set comment="band 30">
        <r>  0.0045  0.0143  0.0006  0.0101  0.0245  0.0235  0.0075  0.0010  0.0230 </r>
        <r>  0.0016  0.0024  0.0029  0.0153  0.0746  0.0294  0.0032  0.0046  0.0066 </r>
        <r>  0.0016  0.0023  0.0029  0.0153  0.0752  0.0293  0.0033  0.0045  0.0064 </r>
       </set>
       <set comment="band 31">
        <r>  0.0024  0.0105  0.0044  0.0036  0.0099  0.0308  0.0555  0.0003  0.0431 </r>
        <r>  0.0050  0.0207  0.0083  0.0014  0.0076  0.0128  0.0376  0.0019  0.0242 </r>
        <r>  0.0051  0.0210  0.0081  0.0014  0.0061  0.0126  0.0367  0.0023  0.0252 </r>
       </set>
       <set comment="band 32">
        <r>  0.0011  0.0027  0.0052  0.0009  0.0082  0.0500  0.0090  0.0006  0.0261 </r>
        <r>  0.0118  0.0133  0.0132  0.0018  0.0069  0.1236  0.0233  0.0008  0.0602 </r>
        <r>  0.0118  0.0128  0.0132  0.0018  0.0081  0.1242  0.0233  0.0010  0.0587 </r>
       </set>
      </set>
      <set comment="kpoint 29">
       <set comment="band 1">
        <r>  0.1984  0.0005  0.0013  0.0030  0.0000  0.0001  0.0000  0.0001  0.0000 </r>
        <r>  0.2235  0.0016  0.0010  0.0007  0.0001  0.0001  0.0000  0.0002  0.0000 </r>
        <r>  0.1984  0.0018  0.0013  0.0017  0.0000  0.0001  0.0000  0.0001  0.0000 </r>
       </set>
       <set comment="band 2">
        <r>  0.2357  0.0004  0.0074  0.0012  0.0001  0.0001  0.0000  0.0005  0.0000 </r>
        <r>  0.1767  0.0007  0.0095  0.0019  0.0000  0.0003  0.0000  0.0001  0.0001 </r>
        <r>  0.2357  0.0008  0.0074  0.0008  0.0001  0.0003  0.0000  0.0004  0.0001 </r>
       </set>
       <set comment="band 3">
        <r>  0.2255  0.0004  0.0048  0.0053  0.0001  0.0001  0.0000  0.0002  0.0000 </r>
        <r>  0.2637  0.0012  0.0038  0.0037  0.0000  0.0002  0.0000  0.0001  0.0000 </r>
        <r>  0.2255  0.0033  0.0048  0.0025  0.0001  0.0001  0.0000  0.0001  0.0001 </r>
       </set>
       <set comment="band 4">
        <r>  0.0033  0.0511  0.0885  0.0446  0.0010  0.0002  0.0006  0.0024  0.0001 </r>
        <r>  0.0022  0.0029  0.0864  0.0025  0.0002  0.0008  0.0001  0.0009  0.0005 </r>
        <r>  0.0033  0.0109  0.0885  0.0848  0.0005  0.0012  0.0006  0.0014  0.0006 </r>
       </set>
       <set comment="band 5">
        <r>  0.0141  0.0146  0.0447  0.0551  0.0001  0.0002  0.0005  0.0015  0.0003 </r>
        <r>  0.0187  0.1167  0.0293  0.0506  0.0015  0.0004  0.0000  0.0010  0.0007 </r>
        <r>  0.0140  0.0382  0.0447  0.0315  0.0002  0.0016  0.0005  0.0002  0.0002 </r>
       </set>
       <set comment="band 6">
        <r>  0.0181  0.0380  0.0247  0.1205  0.0002  0.0000  0.0001  0.0000  0.0006 </r>
        <r>  0.0000  0.0224  0.0238  0.0370  0.0005  0.0019  0.0010  0.0011  0.0005 </r>
        <r>  0.0181  0.1584  0.0247  0.0001  0.0004  0.0000  0.0001  0.0001  0.0004 </r>
       </set>
       <set comment="band 7">
        <r>  0.0077  0.0013  0.0381  0.0169  0.0005  0.0009  0.0004  0.0012  0.0009 </r>
        <r>  0.0180  0.0819  0.0409  0.1710  0.0000  0.0001  0.0005  0.0001  0.0000 </r>
        <r>  0.0077  0.0145  0.0381  0.0037  0.0014  0.0003  0.0004  0.0019  0.0000 </r>
       </set>
       <set comment="band 8">
        <r>  0.0132  0.1074  0.0495  0.0132  0.0012  0.0010  0.0003  0.0007  0.0002 </r>
        <r>  0.0213  0.0334  0.0490  0.0252  0.0023  0.0007  0.0003  0.0004  0.0008 </r>
        <r>  0.0132  0.0297  0.0495  0.0910  0.0005  0.0015  0.0003  0.0002  0.0008 </r>
       </set>
       <set comment="band 9">
        <r>  0.0142  0.1544  0.0180  0.0113  0.0007  0.0011  0.0001  0.0009  0.0000 </r>
        <r>  0.0011  0.0469  0.0373  0.0261  0.0001  0.0009  0.0002  0.0003  0.0003 </r>
        <r>  0.0142  0.0387  0.0180  0.1269  0.0001  0.0018  0.0001  0.0002  0.0006 </r>
       </set>
       <set comment="band 10">
        <r>  0.0030  0.0834  0.0118  0.0742  0.0016  0.0004  0.0017  0.0021  0.0002 </r>
        <r>  0.0098  0.1389  0.0101  0.0466  0.0001  0.0018  0.0039  0.0031  0.0002 </r>
        <r>  0.0030  0.1432  0.0118  0.0144  0.0001  0.0023  0.0017  0.0002  0.0017 </r>
       </set>
       <set comment="band 11">
        <r>  0.0028  0.0072  0.1064  0.0654  0.0029  0.0013  0.0014  0.0001  0.0005 </r>
        <r>  0.0026  0.0127  0.1517  0.0180  0.0006  0.0062  0.0000  0.0021  0.0011 </r>
        <r>  0.0028  0.0366  0.1064  0.0360  0.0021  0.0007  0.0014  0.0008  0.0013 </r>
       </set>
       <set comment="band 12">
        <r>  0.0063  0.0344  0.0919  0.0805  0.0017  0.0007  0.0004  0.0023  0.0020 </r>
        <r>  0.0113  0.0337  0.0339  0.0994  0.0020  0.0003  0.0028  0.0002  0.0008 </r>
        <r>  0.0063  0.0238  0.0919  0.0912  0.0029  0.0009  0.0004  0.0021  0.0008 </r>
       </set>
       <set comment="band 13">
        <r>  0.0011  0.0051  0.0087  0.0033  0.0125  0.0010  0.0080  0.0096  0.0164 </r>
        <r>  0.0001  0.0116  0.0356  0.0226  0.0012  0.0051  0.0225  0.0020  0.0005 </r>
        <r>  0.0011  0.0073  0.0087  0.0011  0.0268  0.0086  0.0080  0.0020  0.0021 </r>
       </set>
       <set comment="band 14">
        <r>  0.0046  0.0106  0.0044  0.0131  0.0055  0.0062  0.0308  0.0041  0.0026 </r>
        <r>  0.0007  0.0012  0.0014  0.0033  0.0108  0.0056  0.0052  0.0166  0.0067 </r>
        <r>  0.0046  0.0030  0.0044  0.0206  0.0055  0.0004  0.0308  0.0099  0.0025 </r>
       </set>
       <set comment="band 15">
        <r>  0.0014  0.0047  0.0043  0.0002  0.0049  0.0194  0.0255  0.0100  0.0047 </r>
        <r>  0.0003  0.0008  0.0076  0.0003  0.0311  0.0030  0.0187  0.0027  0.0261 </r>
        <r>  0.0014  0.0010  0.0043  0.0038  0.0038  0.0165  0.0255  0.0129  0.0058 </r>
       </set>
       <set comment="band 16">
        <r>  0.0036  0.0018  0.0076  0.0010  0.0230  0.0061  0.0043  0.0035  0.0232 </r>
        <r>  0.0025  0.0143  0.0000  0.0079  0.0083  0.0271  0.0130  0.0145  0.0207 </r>
        <r>  0.0036  0.0019  0.0076  0.0009  0.0098  0.0037  0.0043  0.0059  0.0364 </r>
       </set>
       <set comment="band 17">
        <r>  0.0353  0.0055  0.0008  0.0147  0.0025  0.0022  0.0017  0.0197  0.0168 </r>
        <r>  0.0410  0.0022  0.0006  0.0044  0.0037  0.0024  0.0015  0.0069  0.0021 </r>
        <r>  0.0353  0.0076  0.0008  0.0126  0.0166  0.0100  0.0017  0.0119  0.0027 </r>
       </set>
       <set comment="band 18">
        <r>  0.0001  0.0027  0.0013  0.0003  0.0212  0.0593  0.0035  0.0036  0.0152 </r>
        <r>  0.0001  0.0007  0.0008  0.0021  0.0076  0.0302  0.0046  0.0102  0.0227 </r>
        <r>  0.0001  0.0017  0.0013  0.0013  0.0017  0.0297  0.0035  0.0332  0.0347 </r>
       </set>
       <set comment="band 19">
        <r>  0.0144  0.0013  0.0277  0.0140  0.0177  0.0049  0.0013  0.0109  0.0087 </r>
        <r>  0.0124  0.0001  0.0001  0.0001  0.0390  0.0131  0.0078  0.0356  0.0155 </r>
        <r>  0.0144  0.0072  0.0277  0.0081  0.0215  0.0035  0.0013  0.0123  0.0050 </r>
       </set>
       <set comment="band 20">
        <r>  0.0077  0.0050  0.0122  0.0043  0.0066  0.0001  0.0123  0.0706  0.0076 </r>
        <r>  0.0007  0.0052  0.0002  0.0154  0.0220  0.0206  0.0248  0.0158  0.0232 </r>
        <r>  0.0077  0.0053  0.0122  0.0040  0.0017  0.0534  0.0123  0.0173  0.0126 </r>
       </set>
       <set comment="band 21">
        <r>  0.0000  0.0038  0.0074  0.0095  0.0050  0.0176  0.0221  0.0100  0.0336 </r>
        <r>  0.0003  0.0083  0.0224  0.0110  0.0051  0.0143  0.0121  0.0423  0.0144 </r>
        <r>  0.0000  0.0107  0.0074  0.0026  0.0286  0.0211  0.0221  0.0065  0.0100 </r>
       </set>
       <set comment="band 22">
        <r>  0.0085  0.0016  0.0019  0.0017  0.0306  0.0146  0.0191  0.0218  0.0099 </r>
        <r>  0.0024  0.0002  0.0043  0.0001  0.0051  0.0023  0.0045  0.0022  0.0031 </r>
        <r>  0.0085  0.0004  0.0019  0.0030  0.0298  0.0048  0.0191  0.0315  0.0107 </r>
       </set>
       <set comment="band 23">
        <r>  0.0010  0.0165  0.0140  0.0005  0.0363  0.0228  0.0178  0.0024  0.0307 </r>
        <r>  0.0058  0.0032  0.0374  0.0057  0.0195  0.0010  0.0193  0.0004  0.0139 </r>
        <r>  0.0010  0.0022  0.0140  0.0148  0.0209  0.0123  0.0178  0.0129  0.0461 </r>
       </set>
       <set comment="band 24">
        <r>  0.0016  0.0059  0.0049  0.0083  0.0258  0.0409  0.0008  0.0055  0.0148 </r>
        <r>  0.0001  0.0079  0.0013  0.0108  0.0164  0.0517  0.0015  0.0189  0.0450 </r>
        <r>  0.0016  0.0097  0.0049  0.0045  0.0030  0.0091  0.0008  0.0373  0.0377 </r>
       </set>
       <set comment="band 25">
        <r>  0.0010  0.0106  0.0024  0.0100  0.0011  0.0140  0.0320  0.0330  0.0177 </r>
        <r>  0.0052  0.0111  0.0008  0.0130  0.0030  0.0169  0.0583  0.0452  0.0034 </r>
        <r>  0.0010  0.0013  0.0024  0.0194  0.0168  0.0130  0.0320  0.0340  0.0021 </r>
       </set>
       <set comment="band 26">
        <r>  0.0003  0.0037  0.0005  0.0036  0.0136  0.0203  0.0094  0.0098  0.0559 </r>
        <r>  0.0000  0.0024  0.0004  0.0069  0.0136  0.0021  0.0487  0.0063  0.0262 </r>
        <r>  0.0003  0.0067  0.0005  0.0006  0.0261  0.0231  0.0094  0.0069  0.0433 </r>
       </set>
       <set comment="band 27">
        <r>  0.0126  0.0005  0.0008  0.0246  0.0147  0.0150  0.0314  0.0051  0.0024 </r>
        <r>  0.0058  0.0148  0.0037  0.0095  0.0108  0.0186  0.0007  0.0168  0.0089 </r>
        <r>  0.0126  0.0214  0.0008  0.0037  0.0038  0.0130  0.0314  0.0072  0.0133 </r>
       </set>
       <set comment="band 28">
        <r>  0.0001  0.0013  0.0059  0.0017  0.0003  0.0035  0.0322  0.0135  0.0069 </r>
        <r>  0.0001  0.0098  0.0031  0.0061  0.0220  0.0217  0.0240  0.0074  0.0125 </r>
        <r>  0.0001  0.0007  0.0059  0.0023  0.0060  0.0085  0.0320  0.0083  0.0013 </r>
       </set>
       <set comment="band 29">
        <r>  0.0025  0.0111  0.0154  0.0240  0.0088  0.0274  0.0495  0.0321  0.0086 </r>
        <r>  0.0010  0.0076  0.0000  0.0051  0.0306  0.0259  0.0186  0.0124  0.0521 </r>
        <r>  0.0025  0.0121  0.0154  0.0230  0.0054  0.0384  0.0495  0.0211  0.0120 </r>
       </set>
       <set comment="band 30">
        <r>  0.0031  0.0296  0.0016  0.0040  0.0166  0.0210  0.0471  0.0341  0.0028 </r>
        <r>  0.0048  0.0045  0.0160  0.0097  0.0022  0.0397  0.0123  0.0172  0.0060 </r>
        <r>  0.0031  0.0154  0.0016  0.0179  0.0100  0.0513  0.0479  0.0044  0.0093 </r>
       </set>
       <set comment="band 31">
        <r>  0.0008  0.0068  0.0074  0.0001  0.0102  0.0005  0.0003  0.0137  0.0723 </r>
        <r>  0.0001  0.0066  0.0053  0.0084  0.0210  0.0254  0.0095  0.0514  0.0373 </r>
        <r>  0.0008  0.0026  0.0072  0.0045  0.0342  0.0095  0.0004  0.0041  0.0491 </r>
       </set>
       <set comment="band 32">
        <r>  0.0076  0.0026  0.0044  0.0113  0.0044  0.0636  0.0045  0.0429  0.0534 </r>
        <r>  0.0066  0.0266  0.0004  0.0095  0.0207  0.0501  0.0025  0.0152  0.0461 </r>
        <r>  0.0077  0.0124  0.0044  0.0022  0.0374  0.0823  0.0035  0.0305  0.0166 </r>
       </set>
      </set>
      <set comment="kpoint 30">
       <set comment="band 1">
        <r>  0.2185  0.0015  0.0015  0.0014  0.0000  0.0001  0.0000  0.0001  0.0001 </r>
        <r>  0.2002  0.0032  0.0012  0.0005  0.0000  0.0001  0.0000  0.0001  0.0000 </r>
        <r>  0.2002  0.0032  0.0012  0.0005  0.0000  0.0001  0.0000  0.0001  0.0000 </r>
       </set>
       <set comment="band 2">
        <r>  0.1948  0.0007  0.0086  0.0011  0.0001  0.0003  0.0000  0.0003  0.0001 </r>
        <r>  0.2270  0.0004  0.0070  0.0006  0.0000  0.0005  0.0000  0.0001  0.0001 </r>
        <r>  0.2270  0.0004  0.0070  0.0006  0.0000  0.0005  0.0000  0.0001  0.0001 </r>
       </set>
       <set comment="band 3">
        <r>  0.2525  0.0000  0.0025  0.0012  0.0000  0.0003  0.0000  0.0000  0.0001 </r>
        <r>  0.2443  0.0045  0.0049  0.0004  0.0000  0.0005  0.0000  0.0000  0.0001 </r>
        <r>  0.2443  0.0045  0.0049  0.0004  0.0000  0.0005  0.0000  0.0000  0.0001 </r>
       </set>
       <set comment="band 4">
        <r>  0.0181  0.1057  0.0105  0.0006  0.0001  0.0000  0.0006  0.0000  0.0002 </r>
        <r>  0.0055  0.0833  0.0527  0.0029  0.0000  0.0003  0.0003  0.0001  0.0007 </r>
        <r>  0.0055  0.0833  0.0527  0.0029  0.0000  0.0003  0.0003  0.0001  0.0007 </r>
       </set>
       <set comment="band 5">
        <r>  0.0001  0.0236  0.1364  0.0014  0.0005  0.0002  0.0001  0.0028  0.0000 </r>
        <r>  0.0026  0.0535  0.0841  0.0132  0.0003  0.0001  0.0005  0.0005  0.0003 </r>
        <r>  0.0026  0.0535  0.0841  0.0132  0.0003  0.0001  0.0005  0.0005  0.0003 </r>
       </set>
       <set comment="band 6">
        <r>  0.0076  0.0001  0.0001  0.1913  0.0001  0.0005  0.0003  0.0001  0.0000 </r>
        <r>  0.0009  0.0044  0.0099  0.1249  0.0005  0.0005  0.0000  0.0005  0.0002 </r>
        <r>  0.0009  0.0044  0.0099  0.1249  0.0005  0.0005  0.0000  0.0005  0.0002 </r>
       </set>
       <set comment="band 7">
        <r>  0.0024  0.0040  0.0035  0.1123  0.0007  0.0000  0.0008  0.0028  0.0007 </r>
        <r>  0.0045  0.0125  0.0276  0.1407  0.0009  0.0004  0.0007  0.0030  0.0001 </r>
        <r>  0.0045  0.0125  0.0276  0.1408  0.0009  0.0004  0.0007  0.0030  0.0001 </r>
       </set>
       <set comment="band 8">
        <r>  0.0203  0.0004  0.0791  0.0171  0.0003  0.0000  0.0002  0.0002  0.0047 </r>
        <r>  0.0110  0.0571  0.0547  0.0682  0.0002  0.0020  0.0000  0.0009  0.0012 </r>
        <r>  0.0110  0.0571  0.0546  0.0682  0.0002  0.0020  0.0000  0.0009  0.0012 </r>
       </set>
       <set comment="band 9">
        <r>  0.0020  0.2696  0.0547  0.0089  0.0001  0.0000  0.0000  0.0000  0.0001 </r>
        <r>  0.0187  0.0686  0.0268  0.0023  0.0003  0.0042  0.0009  0.0001  0.0011 </r>
        <r>  0.0187  0.0686  0.0268  0.0023  0.0003  0.0042  0.0009  0.0001  0.0011 </r>
       </set>
       <set comment="band 10">
        <r>  0.0142  0.0282  0.0321  0.0448  0.0006  0.0005  0.0020  0.0074  0.0005 </r>
        <r>  0.0220  0.0663  0.0117  0.0900  0.0010  0.0007  0.0012  0.0012  0.0016 </r>
        <r>  0.0220  0.0663  0.0117  0.0900  0.0010  0.0007  0.0012  0.0012  0.0016 </r>
       </set>
       <set comment="band 11">
        <r>  0.0268  0.0203  0.0914  0.0519  0.0011  0.0011  0.0000  0.0025  0.0026 </r>
        <r>  0.0178  0.0567  0.0773  0.0164  0.0008  0.0006  0.0013  0.0033  0.0012 </r>
        <r>  0.0178  0.0567  0.0773  0.0164  0.0008  0.0006  0.0013  0.0033  0.0012 </r>
       </set>
       <set comment="band 12">
        <r>  0.0001  0.0041  0.0318  0.0416  0.0034  0.0082  0.0003  0.0017  0.0007 </r>
        <r>  0.0045  0.0584  0.1161  0.0268  0.0010  0.0057  0.0007  0.0007  0.0026 </r>
        <r>  0.0045  0.0584  0.1161  0.0268  0.0010  0.0057  0.0007  0.0007  0.0026 </r>
       </set>
       <set comment="band 13">
        <r>  0.0000  0.0004  0.0007  0.0124  0.0019  0.0105  0.0168  0.0000  0.0160 </r>
        <r>  0.0013  0.0012  0.0022  0.0055  0.0021  0.0055  0.0140  0.0039  0.0202 </r>
        <r>  0.0013  0.0012  0.0022  0.0055  0.0021  0.0055  0.0140  0.0039  0.0202 </r>
       </set>
       <set comment="band 14">
        <r>  0.0031  0.0019  0.0576  0.0027  0.0005  0.0003  0.0002  0.0014  0.0045 </r>
        <r>  0.0015  0.0136  0.0028  0.0018  0.0011  0.0017  0.0450  0.0012  0.0242 </r>
        <r>  0.0015  0.0136  0.0028  0.0018  0.0011  0.0017  0.0450  0.0012  0.0242 </r>
       </set>
       <set comment="band 15">
        <r>  0.0069  0.0426  0.0020  0.0021  0.0037  0.0002  0.0620  0.0002  0.0231 </r>
        <r>  0.0015  0.0003  0.0097  0.0034  0.0076  0.0230  0.0095  0.0010  0.0012 </r>
        <r>  0.0015  0.0003  0.0097  0.0034  0.0076  0.0230  0.0095  0.0010  0.0012 </r>
       </set>
       <set comment="band 16">
        <r>  0.0045  0.0028  0.0028  0.0050  0.0378  0.0298  0.0073  0.0016  0.0018 </r>
        <r>  0.0042  0.0087  0.0046  0.0079  0.0330  0.0018  0.0035  0.0306  0.0027 </r>
        <r>  0.0042  0.0087  0.0046  0.0079  0.0330  0.0018  0.0035  0.0306  0.0027 </r>
       </set>
       <set comment="band 17">
        <r>  0.0000  0.0020  0.0000  0.0033  0.0261  0.0008  0.0045  0.0532  0.0005 </r>
        <r>  0.0022  0.0009  0.0014  0.0023  0.0421  0.0015  0.0029  0.0205  0.0023 </r>
        <r>  0.0022  0.0009  0.0014  0.0023  0.0421  0.0015  0.0029  0.0205  0.0023 </r>
       </set>
       <set comment="band 18">
        <r>  0.0074  0.0317  0.0026  0.0182  0.0187  0.0267  0.0000  0.0102  0.0026 </r>
        <r>  0.0109  0.0532  0.0090  0.0021  0.0102  0.0070  0.0118  0.0057  0.0053 </r>
        <r>  0.0109  0.0532  0.0090  0.0021  0.0102  0.0070  0.0118  0.0057  0.0053 </r>
       </set>
       <set comment="band 19">
        <r>  0.0043  0.0009  0.0077  0.0092  0.0030  0.0079  0.0048  0.0006  0.0500 </r>
        <r>  0.0025  0.0002  0.0377  0.0067  0.0134  0.0211  0.0027  0.0199  0.0258 </r>
        <r>  0.0025  0.0002  0.0377  0.0067  0.0134  0.0211  0.0027  0.0199  0.0258 </r>
       </set>
       <set comment="band 20">
        <r>  0.0005  0.0126  0.0358  0.0181  0.0377  0.0137  0.0002  0.0336  0.0012 </r>
        <r>  0.0014  0.0055  0.0076  0.0274  0.0216  0.0010  0.0030  0.0375  0.0206 </r>
        <r>  0.0014  0.0055  0.0076  0.0274  0.0216  0.0010  0.0030  0.0375  0.0206 </r>
       </set>
       <set comment="band 21">
        <r>  0.0071  0.0024  0.0005  0.0000  0.0001  0.0289  0.0000  0.0200  0.0014 </r>
        <r>  0.0065  0.0026  0.0120  0.0015  0.0048  0.0320  0.0076  0.0017  0.0145 </r>
        <r>  0.0065  0.0026  0.0120  0.0015  0.0048  0.0320  0.0076  0.0017  0.0145 </r>
       </set>
       <set comment="band 22">
        <r>  0.0006  0.0068  0.0097  0.0032  0.0383  0.0045  0.0003  0.0353  0.0039 </r>
        <r>  0.0204  0.0076  0.0082  0.0016  0.0046  0.0319  0.0113  0.0077  0.0157 </r>
        <r>  0.0204  0.0076  0.0082  0.0016  0.0046  0.0319  0.0113  0.0077  0.0157 </r>
       </set>
       <set comment="band 23">
        <r>  0.0113  0.0001  0.0108  0.0146  0.0013  0.0001  0.0000  0.0235  0.0558 </r>
        <r>  0.0056  0.0041  0.0088  0.0168  0.0273  0.0074  0.0009  0.0697  0.0003 </r>
        <r>  0.0056  0.0041  0.0088  0.0168  0.0273  0.0074  0.0009  0.0697  0.0003 </r>
       </set>
       <set comment="band 24">
        <r>  0.0105  0.0033  0.0160  0.0059  0.0103  0.0069  0.0041  0.0484  0.0071 </r>
        <r>  0.0047  0.0039  0.0067  0.0077  0.0105  0.0171  0.0202  0.0270  0.0254 </r>
        <r>  0.0047  0.0039  0.0067  0.0077  0.0105  0.0171  0.0202  0.0270  0.0254 </r>
       </set>
       <set comment="band 25">
        <r>  0.0229  0.0030  0.0001  0.0085  0.0002  0.0768  0.0820  0.0010  0.0039 </r>
        <r>  0.0093  0.0010  0.0006  0.0031  0.0027  0.0427  0.0384  0.0020  0.0001 </r>
        <r>  0.0093  0.0010  0.0006  0.0031  0.0027  0.0427  0.0384  0.0020  0.0001 </r>
       </set>
       <set comment="band 26">
        <r>  0.0002  0.0003  0.0014  0.0073  0.0712  0.0055  0.0352  0.0100  0.0023 </r>
        <r>  0.0055  0.0231  0.0100  0.0034  0.0437  0.0097  0.0307  0.0088  0.0219 </r>
        <r>  0.0055  0.0231  0.0100  0.0034  0.0437  0.0097  0.0307  0.0088  0.0219 </r>
       </set>
       <set comment="band 27">
        <r>  0.0125  0.0296  0.0007  0.0024  0.0211  0.0035  0.0296  0.0037  0.0222 </r>
        <r>  0.0011  0.0063  0.0004  0.0035  0.0428  0.0189  0.0613  0.0159  0.0224 </r>
        <r>  0.0011  0.0063  0.0004  0.0035  0.0428  0.0189  0.0613  0.0159  0.0223 </r>
       </set>
       <set comment="band 28">
        <r>  0.0001  0.0070  0.0040  0.0000  0.0118  0.0690  0.0268  0.0017  0.0000 </r>
        <r>  0.0041  0.0126  0.0157  0.0002  0.0083  0.0519  0.0046  0.0008  0.0096 </r>
        <r>  0.0041  0.0126  0.0157  0.0002  0.0083  0.0519  0.0046  0.0008  0.0096 </r>
       </set>
       <set comment="band 29">
        <r>  0.0030  0.0353  0.0120  0.0028  0.0001  0.0134  0.0724  0.0004  0.0474 </r>
        <r>  0.0016  0.0050  0.0055  0.0029  0.0203  0.0683  0.0411  0.0020  0.0101 </r>
        <r>  0.0015  0.0049  0.0055  0.0029  0.0203  0.0682  0.0411  0.0020  0.0100 </r>
       </set>
       <set comment="band 30">
        <r>  0.0046  0.0001  0.0001  0.0000  0.0923  0.0120  0.0005  0.0313  0.0119 </r>
        <r>  0.0015  0.0002  0.0045  0.0040  0.0572  0.0257  0.0065  0.0078  0.0118 </r>
        <r>  0.0015  0.0002  0.0045  0.0040  0.0573  0.0257  0.0065  0.0078  0.0119 </r>
       </set>
       <set comment="band 31">
        <r>  0.0008  0.0004  0.0011  0.0009  0.0017  0.0760  0.0012  0.0000  0.0024 </r>
        <r>  0.0099  0.0268  0.0111  0.0004  0.0024  0.0000  0.0064  0.0009  0.0388 </r>
        <r>  0.0098  0.0269  0.0112  0.0005  0.0026  0.0001  0.0065  0.0009  0.0386 </r>
       </set>
       <set comment="band 32">
        <r>  0.0028  0.0011  0.0000  0.0055  0.0052  0.0452  0.0002  0.0021  0.0405 </r>
        <r>  0.0097  0.0066  0.0073  0.0080  0.0204  0.0488  0.0109  0.0363  0.0247 </r>
        <r>  0.0096  0.0067  0.0072  0.0079  0.0200  0.0493  0.0106  0.0363  0.0249 </r>
       </set>
      </set>
      <set comment="kpoint 31">
       <set comment="band 1">
        <r>  0.1907  0.0005  0.0010  0.0047  0.0001  0.0001  0.0000  0.0002  0.0000 </r>
        <r>  0.2558  0.0019  0.0006  0.0008  0.0002  0.0001  0.0001  0.0003  0.0001 </r>
        <r>  0.1907  0.0028  0.0010  0.0025  0.0000  0.0002  0.0000  0.0001  0.0001 </r>
       </set>
       <set comment="band 2">
        <r>  0.2790  0.0007  0.0040  0.0017  0.0002  0.0002  0.0000  0.0007  0.0000 </r>
        <r>  0.1089  0.0014  0.0088  0.0042  0.0000  0.0003  0.0000  0.0001  0.0001 </r>
        <r>  0.2790  0.0008  0.0040  0.0016  0.0001  0.0003  0.0000  0.0005  0.0001 </r>
       </set>
       <set comment="band 3">
        <r>  0.1903  0.0009  0.0039  0.0070  0.0001  0.0001  0.0000  0.0003  0.0000 </r>
        <r>  0.3003  0.0011  0.0007  0.0031  0.0000  0.0001  0.0000  0.0001  0.0000 </r>
        <r>  0.1903  0.0038  0.0039  0.0041  0.0001  0.0002  0.0000  0.0001  0.0001 </r>
       </set>
       <set comment="band 4">
        <r>  0.0095  0.0427  0.0851  0.0343  0.0006  0.0001  0.0000  0.0018  0.0001 </r>
        <r>  0.0009  0.0317  0.0007  0.0587  0.0004  0.0006  0.0000  0.0016  0.0004 </r>
        <r>  0.0095  0.0034  0.0851  0.0735  0.0004  0.0010  0.0000  0.0008  0.0003 </r>
       </set>
       <set comment="band 5">
        <r>  0.0124  0.0096  0.0417  0.0736  0.0006  0.0002  0.0005  0.0012  0.0001 </r>
        <r>  0.0188  0.0172  0.1377  0.0062  0.0009  0.0011  0.0000  0.0004  0.0004 </r>
        <r>  0.0124  0.0445  0.0417  0.0387  0.0004  0.0009  0.0005  0.0005  0.0004 </r>
       </set>
       <set comment="band 6">
        <r>  0.0015  0.0599  0.0120  0.0608  0.0000  0.0007  0.0001  0.0000  0.0009 </r>
        <r>  0.0140  0.1120  0.0198  0.0462  0.0001  0.0007  0.0001  0.0002  0.0001 </r>
        <r>  0.0015  0.1128  0.0120  0.0080  0.0008  0.0002  0.0001  0.0006  0.0001 </r>
       </set>
       <set comment="band 7">
        <r>  0.0152  0.0076  0.0690  0.0423  0.0001  0.0006  0.0008  0.0020  0.0000 </r>
        <r>  0.0009  0.0422  0.0162  0.1211  0.0005  0.0005  0.0013  0.0010  0.0002 </r>
        <r>  0.0152  0.0437  0.0690  0.0062  0.0001  0.0008  0.0008  0.0018  0.0001 </r>
       </set>
       <set comment="band 8">
        <r>  0.0162  0.1043  0.0416  0.0155  0.0015  0.0015  0.0003  0.0009  0.0001 </r>
        <r>  0.0214  0.0261  0.0674  0.0194  0.0025  0.0011  0.0001  0.0005  0.0009 </r>
        <r>  0.0162  0.0383  0.0416  0.0816  0.0008  0.0020  0.0003  0.0004  0.0009 </r>
       </set>
       <set comment="band 9">
        <r>  0.0154  0.1256  0.0174  0.0128  0.0007  0.0014  0.0002  0.0014  0.0001 </r>
        <r>  0.0046  0.0752  0.0302  0.0431  0.0003  0.0013  0.0001  0.0006  0.0002 </r>
        <r>  0.0154  0.0307  0.0174  0.1077  0.0004  0.0027  0.0002  0.0002  0.0004 </r>
       </set>
       <set comment="band 10">
        <r>  0.0039  0.0828  0.0148  0.0609  0.0030  0.0009  0.0025  0.0023  0.0005 </r>
        <r>  0.0080  0.1058  0.0221  0.0353  0.0007  0.0056  0.0048  0.0043  0.0007 </r>
        <r>  0.0039  0.1264  0.0148  0.0173  0.0022  0.0024  0.0025  0.0007  0.0013 </r>
       </set>
       <set comment="band 11">
        <r>  0.0018  0.0078  0.1165  0.0612  0.0024  0.0032  0.0006  0.0001  0.0005 </r>
        <r>  0.0122  0.0228  0.1171  0.0245  0.0019  0.0046  0.0003  0.0016  0.0010 </r>
        <r>  0.0018  0.0404  0.1165  0.0287  0.0019  0.0013  0.0006  0.0021  0.0010 </r>
       </set>
       <set comment="band 12">
        <r>  0.0031  0.0242  0.0957  0.1056  0.0004  0.0010  0.0014  0.0024  0.0008 </r>
        <r>  0.0005  0.0329  0.0623  0.0967  0.0001  0.0006  0.0026  0.0014  0.0001 </r>
        <r>  0.0031  0.0419  0.0957  0.0879  0.0009  0.0008  0.0014  0.0027  0.0004 </r>
       </set>
       <set comment="band 13">
        <r>  0.0011  0.0233  0.0041  0.0016  0.0148  0.0042  0.0097  0.0043  0.0073 </r>
        <r>  0.0000  0.0226  0.0281  0.0219  0.0070  0.0015  0.0127  0.0042  0.0023 </r>
        <r>  0.0011  0.0121  0.0041  0.0129  0.0178  0.0014  0.0097  0.0071  0.0044 </r>
       </set>
       <set comment="band 14">
        <r>  0.0044  0.0088  0.0040  0.0148  0.0086  0.0141  0.0013  0.0125  0.0081 </r>
        <r>  0.0002  0.0050  0.0108  0.0123  0.0253  0.0169  0.0016  0.0165  0.0090 </r>
        <r>  0.0044  0.0034  0.0040  0.0202  0.0154  0.0163  0.0013  0.0103  0.0013 </r>
       </set>
       <set comment="band 15">
        <r>  0.0033  0.0046  0.0060  0.0214  0.0013  0.0012  0.0513  0.0105  0.0015 </r>
        <r>  0.0009  0.0016  0.0001  0.0007  0.0077  0.0029  0.0315  0.0046  0.0173 </r>
        <r>  0.0033  0.0087  0.0060  0.0173  0.0020  0.0109  0.0513  0.0008  0.0008 </r>
       </set>
       <set comment="band 16">
        <r>  0.0114  0.0054  0.0083  0.0035  0.0219  0.0116  0.0008  0.0012  0.0347 </r>
        <r>  0.0030  0.0131  0.0016  0.0076  0.0093  0.0249  0.0079  0.0135  0.0161 </r>
        <r>  0.0114  0.0052  0.0083  0.0037  0.0126  0.0042  0.0008  0.0087  0.0439 </r>
       </set>
       <set comment="band 17">
        <r>  0.0149  0.0105  0.0014  0.0178  0.0016  0.0017  0.0063  0.0245  0.0248 </r>
        <r>  0.0424  0.0085  0.0007  0.0251  0.0012  0.0003  0.0049  0.0009  0.0024 </r>
        <r>  0.0149  0.0074  0.0014  0.0209  0.0233  0.0165  0.0063  0.0097  0.0032 </r>
       </set>
       <set comment="band 18">
        <r>  0.0018  0.0114  0.0030  0.0021  0.0177  0.0642  0.0042  0.0046  0.0084 </r>
        <r>  0.0004  0.0087  0.0006  0.0054  0.0096  0.0309  0.0103  0.0110  0.0276 </r>
        <r>  0.0018  0.0075  0.0030  0.0060  0.0003  0.0330  0.0042  0.0358  0.0258 </r>
       </set>
       <set comment="band 19">
        <r>  0.0304  0.0021  0.0022  0.0068  0.0183  0.0163  0.0102  0.0241  0.0028 </r>
        <r>  0.0060  0.0040  0.0055  0.0102  0.0269  0.0218  0.0000  0.0560  0.0174 </r>
        <r>  0.0304  0.0036  0.0022  0.0054  0.0084  0.0055  0.0102  0.0349  0.0126 </r>
       </set>
       <set comment="band 20">
        <r>  0.0001  0.0141  0.0040  0.0005  0.0190  0.0111  0.0000  0.0099  0.0768 </r>
        <r>  0.0009  0.0046  0.0028  0.0123  0.0233  0.0243  0.0001  0.0086  0.0672 </r>
        <r>  0.0001  0.0034  0.0040  0.0113  0.0294  0.0160  0.0000  0.0050  0.0664 </r>
       </set>
       <set comment="band 21">
        <r>  0.0076  0.0016  0.0000  0.0125  0.0214  0.0066  0.0600  0.0113  0.0013 </r>
        <r>  0.0025  0.0064  0.0000  0.0091  0.0162  0.0061  0.0834  0.0157  0.0087 </r>
        <r>  0.0076  0.0059  0.0000  0.0081  0.0099  0.0043  0.0600  0.0137  0.0129 </r>
       </set>
       <set comment="band 22">
        <r>  0.0036  0.0005  0.0143  0.0190  0.0012  0.0032  0.0389  0.0374  0.0082 </r>
        <r>  0.0001  0.0012  0.0000  0.0033  0.0388  0.0007  0.0766  0.0021  0.0255 </r>
        <r>  0.0036  0.0119  0.0143  0.0077  0.0075  0.0295  0.0389  0.0111  0.0019 </r>
       </set>
       <set comment="band 23">
        <r>  0.0020  0.0033  0.0142  0.0054  0.0348  0.0016  0.0329  0.0047  0.0137 </r>
        <r>  0.0087  0.0102  0.0398  0.0050  0.0056  0.0060  0.0055  0.0021  0.0162 </r>
        <r>  0.0020  0.0013  0.0142  0.0075  0.0374  0.0040  0.0329  0.0023  0.0111 </r>
       </set>
       <set comment="band 24">
        <r>  0.0024  0.0049  0.0038  0.0081  0.0087  0.0390  0.0029  0.0216  0.0892 </r>
        <r>  0.0000  0.0043  0.0000  0.0122  0.0091  0.0003  0.0013  0.0007  0.0267 </r>
        <r>  0.0024  0.0125  0.0038  0.0005  0.0456  0.0398  0.0029  0.0208  0.0523 </r>
       </set>
       <set comment="band 25">
        <r>  0.0025  0.0094  0.0126  0.0038  0.0169  0.0333  0.0107  0.0054  0.0015 </r>
        <r>  0.0042  0.0011  0.0011  0.0009  0.0193  0.0213  0.0003  0.0207  0.0216 </r>
        <r>  0.0025  0.0051  0.0126  0.0082  0.0046  0.0130  0.0107  0.0257  0.0139 </r>
       </set>
       <set comment="band 26">
        <r>  0.0052  0.0188  0.0011  0.0067  0.0120  0.0000  0.0282  0.0300  0.0147 </r>
        <r>  0.0001  0.0044  0.0145  0.0050  0.0092  0.0077  0.0026  0.0035  0.0177 </r>
        <r>  0.0052  0.0068  0.0011  0.0187  0.0155  0.0222  0.0282  0.0078  0.0112 </r>
       </set>
       <set comment="band 27">
        <r>  0.0004  0.0043  0.0078  0.0052  0.0155  0.0017  0.0218  0.0138  0.0058 </r>
        <r>  0.0065  0.0128  0.0026  0.0216  0.0024  0.0162  0.0045  0.0321  0.0012 </r>
        <r>  0.0004  0.0076  0.0078  0.0019  0.0009  0.0078  0.0218  0.0076  0.0203 </r>
       </set>
       <set comment="band 28">
        <r>  0.0007  0.0038  0.0057  0.0018  0.0193  0.0111  0.0025  0.0050  0.0017 </r>
        <r>  0.0008  0.0055  0.0027  0.0020  0.0277  0.0096  0.0154  0.0051  0.0130 </r>
        <r>  0.0007  0.0003  0.0057  0.0053  0.0095  0.0116  0.0025  0.0044  0.0115 </r>
       </set>
       <set comment="band 29">
        <r>  0.0042  0.0027  0.0041  0.0117  0.0038  0.0234  0.0170  0.0444  0.0288 </r>
        <r>  0.0028  0.0223  0.0012  0.0097  0.0109  0.0803  0.0244  0.0487  0.0221 </r>
        <r>  0.0042  0.0134  0.0041  0.0010  0.0156  0.0426  0.0170  0.0252  0.0170 </r>
       </set>
       <set comment="band 30">
        <r>  0.0107  0.0056  0.0170  0.0057  0.0386  0.0185  0.0039  0.0623  0.0099 </r>
        <r>  0.0005  0.0061  0.0000  0.0093  0.0322  0.0408  0.0116  0.1013  0.0175 </r>
        <r>  0.0106  0.0038  0.0167  0.0075  0.0125  0.0244  0.0039  0.0571  0.0359 </r>
       </set>
       <set comment="band 31">
        <r>  0.0003  0.0175  0.0007  0.0011  0.0271  0.0458  0.0208  0.0059  0.0159 </r>
        <r>  0.0013  0.0037  0.0002  0.0013  0.0189  0.0248  0.0441  0.0299  0.0433 </r>
        <r>  0.0003  0.0079  0.0007  0.0107  0.0055  0.0109  0.0208  0.0413  0.0374 </r>
       </set>
       <set comment="band 32">
        <r>  0.0022  0.0033  0.0270  0.0006  0.0177  0.0034  0.0016  0.0844  0.0030 </r>
        <r>  0.0122  0.0048  0.0432  0.0022  0.0047  0.0091  0.0025  0.0238  0.0147 </r>
        <r>  0.0021  0.0023  0.0279  0.0019  0.0014  0.0466  0.0017  0.0374  0.0186 </r>
       </set>
      </set>
      <set comment="kpoint 32">
       <set comment="band 1">
        <r>  0.2535  0.0018  0.0012  0.0019  0.0000  0.0002  0.0000  0.0001  0.0002 </r>
        <r>  0.1908  0.0053  0.0011  0.0007  0.0000  0.0002  0.0001  0.0001  0.0000 </r>
        <r>  0.1908  0.0054  0.0011  0.0007  0.0000  0.0002  0.0001  0.0001  0.0000 </r>
       </set>
       <set comment="band 2">
        <r>  0.1406  0.0030  0.0070  0.0010  0.0001  0.0003  0.0000  0.0003  0.0001 </r>
        <r>  0.2603  0.0006  0.0035  0.0005  0.0000  0.0006  0.0000  0.0001  0.0002 </r>
        <r>  0.2603  0.0006  0.0035  0.0005  0.0000  0.0006  0.0000  0.0001  0.0002 </r>
       </set>
       <set comment="band 3">
        <r>  0.2770  0.0001  0.0002  0.0009  0.0000  0.0004  0.0000  0.0000  0.0001 </r>
        <r>  0.2216  0.0064  0.0033  0.0005  0.0000  0.0007  0.0000  0.0001  0.0002 </r>
        <r>  0.2216  0.0064  0.0033  0.0005  0.0000  0.0007  0.0000  0.0001  0.0002 </r>
       </set>
       <set comment="band 4">
        <r>  0.0074  0.1020  0.0148  0.0006  0.0001  0.0002  0.0003  0.0000  0.0000 </r>
        <r>  0.0053  0.0765  0.0541  0.0003  0.0000  0.0001  0.0002  0.0000  0.0003 </r>
        <r>  0.0053  0.0766  0.0541  0.0003  0.0000  0.0001  0.0002  0.0000  0.0003 </r>
       </set>
       <set comment="band 5">
        <r>  0.0049  0.0200  0.1293  0.0004  0.0005  0.0001  0.0000  0.0025  0.0002 </r>
        <r>  0.0007  0.0538  0.0823  0.0137  0.0002  0.0002  0.0002  0.0004  0.0006 </r>
        <r>  0.0007  0.0538  0.0823  0.0137  0.0002  0.0002  0.0002  0.0004  0.0006 </r>
       </set>
       <set comment="band 6">
        <r>  0.0074  0.0013  0.0016  0.1770  0.0000  0.0004  0.0003  0.0003  0.0000 </r>
        <r>  0.0004  0.0018  0.0096  0.1268  0.0003  0.0003  0.0001  0.0005  0.0002 </r>
        <r>  0.0004  0.0018  0.0096  0.1268  0.0003  0.0003  0.0001  0.0005  0.0002 </r>
       </set>
       <set comment="band 7">
        <r>  0.0004  0.0111  0.0035  0.1097  0.0006  0.0000  0.0003  0.0028  0.0000 </r>
        <r>  0.0071  0.0129  0.0152  0.1423  0.0004  0.0003  0.0006  0.0041  0.0001 </r>
        <r>  0.0071  0.0130  0.0153  0.1424  0.0004  0.0003  0.0006  0.0041  0.0001 </r>
       </set>
       <set comment="band 8">
        <r>  0.0229  0.0003  0.1059  0.0221  0.0001  0.0000  0.0004  0.0000  0.0057 </r>
        <r>  0.0103  0.0343  0.0776  0.0434  0.0001  0.0024  0.0000  0.0010  0.0021 </r>
        <r>  0.0103  0.0343  0.0776  0.0433  0.0001  0.0024  0.0000  0.0010  0.0021 </r>
       </set>
       <set comment="band 9">
        <r>  0.0028  0.2006  0.0163  0.0133  0.0000  0.0023  0.0002  0.0009  0.0001 </r>
        <r>  0.0243  0.0789  0.0270  0.0040  0.0001  0.0048  0.0011  0.0001  0.0002 </r>
        <r>  0.0243  0.0789  0.0270  0.0040  0.0001  0.0048  0.0011  0.0001  0.0002 </r>
       </set>
       <set comment="band 10">
        <r>  0.0145  0.0031  0.0575  0.0885  0.0010  0.0003  0.0038  0.0080  0.0010 </r>
        <r>  0.0104  0.0264  0.0041  0.1214  0.0007  0.0001  0.0029  0.0018  0.0049 </r>
        <r>  0.0104  0.0264  0.0041  0.1214  0.0007  0.0001  0.0029  0.0018  0.0049 </r>
       </set>
       <set comment="band 11">
        <r>  0.0197  0.0819  0.0360  0.0000  0.0015  0.0044  0.0002  0.0045  0.0005 </r>
        <r>  0.0058  0.0564  0.1235  0.0037  0.0000  0.0057  0.0006  0.0006  0.0032 </r>
        <r>  0.0058  0.0564  0.1235  0.0037  0.0000  0.0057  0.0006  0.0006  0.0032 </r>
       </set>
       <set comment="band 12">
        <r>  0.0072  0.0045  0.0898  0.0454  0.0000  0.0064  0.0001  0.0004  0.0043 </r>
        <r>  0.0179  0.0918  0.0808  0.0170  0.0004  0.0018  0.0001  0.0034  0.0001 </r>
        <r>  0.0179  0.0918  0.0808  0.0170  0.0004  0.0018  0.0001  0.0034  0.0001 </r>
       </set>
       <set comment="band 13">
        <r>  0.0000  0.0044  0.0113  0.0267  0.0013  0.0079  0.0126  0.0003  0.0147 </r>
        <r>  0.0019  0.0020  0.0033  0.0198  0.0010  0.0055  0.0100  0.0039  0.0201 </r>
        <r>  0.0019  0.0020  0.0033  0.0198  0.0010  0.0055  0.0100  0.0039  0.0201 </r>
       </set>
       <set comment="band 14">
        <r>  0.0023  0.0023  0.0341  0.0068  0.0038  0.0075  0.0019  0.0087  0.0138 </r>
        <r>  0.0011  0.0366  0.0058  0.0016  0.0003  0.0008  0.0328  0.0114  0.0142 </r>
        <r>  0.0011  0.0366  0.0058  0.0016  0.0003  0.0008  0.0328  0.0114  0.0142 </r>
       </set>
       <set comment="band 15">
        <r>  0.0004  0.0824  0.0006  0.0016  0.0004  0.0009  0.0708  0.0062  0.0038 </r>
        <r>  0.0011  0.0025  0.0065  0.0009  0.0111  0.0215  0.0032  0.0021  0.0046 </r>
        <r>  0.0011  0.0025  0.0065  0.0009  0.0111  0.0215  0.0032  0.0021  0.0046 </r>
       </set>
       <set comment="band 16">
        <r>  0.0011  0.0038  0.0017  0.0001  0.0095  0.0058  0.0011  0.0350  0.0035 </r>
        <r>  0.0006  0.0055  0.0014  0.0046  0.0396  0.0019  0.0092  0.0349  0.0112 </r>
        <r>  0.0006  0.0055  0.0014  0.0046  0.0396  0.0019  0.0092  0.0349  0.0112 </r>
       </set>
       <set comment="band 17">
        <r>  0.0002  0.0082  0.0000  0.0105  0.0752  0.0211  0.0021  0.0111  0.0144 </r>
        <r>  0.0040  0.0112  0.0070  0.0151  0.0211  0.0042  0.0017  0.0173  0.0043 </r>
        <r>  0.0040  0.0112  0.0070  0.0151  0.0211  0.0042  0.0017  0.0173  0.0043 </r>
       </set>
       <set comment="band 18">
        <r>  0.0013  0.0000  0.0041  0.0017  0.0007  0.0123  0.0070  0.0026  0.0159 </r>
        <r>  0.0005  0.0300  0.0088  0.0010  0.0220  0.0018  0.0393  0.0086  0.0150 </r>
        <r>  0.0005  0.0300  0.0088  0.0010  0.0220  0.0018  0.0393  0.0086  0.0150 </r>
       </set>
       <set comment="band 19">
        <r>  0.0067  0.0035  0.0492  0.0193  0.0009  0.0001  0.0012  0.0368  0.0234 </r>
        <r>  0.0178  0.0040  0.0220  0.0253  0.0305  0.0039  0.0021  0.0159  0.0129 </r>
        <r>  0.0177  0.0040  0.0220  0.0253  0.0305  0.0039  0.0021  0.0159  0.0129 </r>
       </set>
       <set comment="band 20">
        <r>  0.0029  0.0438  0.0001  0.0066  0.0609  0.0108  0.0031  0.0183  0.0008 </r>
        <r>  0.0024  0.0430  0.0031  0.0089  0.0145  0.0041  0.0212  0.0337  0.0021 </r>
        <r>  0.0024  0.0430  0.0031  0.0089  0.0145  0.0041  0.0212  0.0337  0.0021 </r>
       </set>
       <set comment="band 21">
        <r>  0.0007  0.0004  0.0033  0.0318  0.0048  0.0012  0.0162  0.0335  0.0036 </r>
        <r>  0.0015  0.0186  0.0042  0.0079  0.0379  0.0048  0.0352  0.0412  0.0041 </r>
        <r>  0.0015  0.0186  0.0042  0.0079  0.0379  0.0048  0.0352  0.0412  0.0041 </r>
       </set>
       <set comment="band 22">
        <r>  0.0073  0.0031  0.0181  0.0010  0.0295  0.0080  0.0081  0.0552  0.0048 </r>
        <r>  0.0065  0.0000  0.0174  0.0095  0.0245  0.0648  0.0135  0.0107  0.0264 </r>
        <r>  0.0065  0.0000  0.0174  0.0095  0.0245  0.0648  0.0135  0.0107  0.0264 </r>
       </set>
       <set comment="band 23">
        <r>  0.0021  0.0230  0.0037  0.0048  0.0769  0.0552  0.0160  0.0003  0.0070 </r>
        <r>  0.0034  0.0004  0.0071  0.0006  0.0653  0.0048  0.0010  0.0010  0.0009 </r>
        <r>  0.0034  0.0004  0.0071  0.0006  0.0653  0.0048  0.0010  0.0010  0.0009 </r>
       </set>
       <set comment="band 24">
        <r>  0.0119  0.0003  0.0001  0.0141  0.0043  0.0527  0.0039  0.0067  0.0253 </r>
        <r>  0.0130  0.0037  0.0132  0.0120  0.0007  0.0164  0.0122  0.0499  0.0104 </r>
        <r>  0.0130  0.0037  0.0132  0.0120  0.0007  0.0164  0.0122  0.0499  0.0104 </r>
       </set>
       <set comment="band 25">
        <r>  0.0121  0.0025  0.0004  0.0024  0.0040  0.0011  0.0204  0.0081  0.0371 </r>
        <r>  0.0134  0.0061  0.0065  0.0006  0.0003  0.0219  0.0077  0.0007  0.0320 </r>
        <r>  0.0134  0.0061  0.0065  0.0005  0.0003  0.0219  0.0077  0.0007  0.0320 </r>
       </set>
       <set comment="band 26">
        <r>  0.0477  0.0000  0.0024  0.0032  0.0003  0.0001  0.0048  0.0011  0.0078 </r>
        <r>  0.0017  0.0229  0.0016  0.0005  0.0020  0.0803  0.0269  0.0053  0.0013 </r>
        <r>  0.0017  0.0229  0.0016  0.0005  0.0020  0.0803  0.0269  0.0053  0.0013 </r>
       </set>
       <set comment="band 27">
        <r>  0.0022  0.0277  0.0195  0.0000  0.0136  0.0133  0.0098  0.0017  0.0487 </r>
        <r>  0.0155  0.0044  0.0231  0.0005  0.0041  0.0671  0.0174  0.0013  0.0312 </r>
        <r>  0.0155  0.0044  0.0231  0.0005  0.0041  0.0671  0.0174  0.0013  0.0312 </r>
       </set>
       <set comment="band 28">
        <r>  0.0002  0.0084  0.0025  0.0000  0.0118  0.0080  0.1346  0.0005  0.0005 </r>
        <r>  0.0055  0.0021  0.0042  0.0073  0.0090  0.0135  0.0370  0.0086  0.0102 </r>
        <r>  0.0055  0.0021  0.0042  0.0073  0.0090  0.0135  0.0370  0.0086  0.0102 </r>
       </set>
       <set comment="band 29">
        <r>  0.0000  0.0013  0.0005  0.0000  0.0539  0.0274  0.0028  0.0194  0.0116 </r>
        <r>  0.0007  0.0000  0.0018  0.0018  0.0513  0.0032  0.0016  0.0071  0.0001 </r>
        <r>  0.0007  0.0000  0.0018  0.0018  0.0513  0.0033  0.0016  0.0071  0.0001 </r>
       </set>
       <set comment="band 30">
        <r>  0.0017  0.0016  0.0004  0.0017  0.0015  0.1210  0.0084  0.0043  0.0047 </r>
        <r>  0.0180  0.0110  0.0060  0.0000  0.0056  0.0170  0.0100  0.0001  0.0476 </r>
        <r>  0.0180  0.0110  0.0060  0.0000  0.0056  0.0170  0.0100  0.0001  0.0476 </r>
       </set>
       <set comment="band 31">
        <r>  0.0045  0.0018  0.0001  0.0026  0.0128  0.0089  0.0245  0.0170  0.0585 </r>
        <r>  0.0001  0.0033  0.0021  0.0017  0.0109  0.0099  0.0600  0.0106  0.0508 </r>
        <r>  0.0001  0.0032  0.0021  0.0017  0.0109  0.0099  0.0599  0.0106  0.0508 </r>
       </set>
       <set comment="band 32">
        <r>  0.0008  0.0031  0.0001  0.0078  0.0375  0.0017  0.0061  0.0113  0.0138 </r>
        <r>  0.0010  0.0020  0.0003  0.0083  0.0837  0.0018  0.0158  0.0468  0.0123 </r>
        <r>  0.0010  0.0019  0.0003  0.0083  0.0840  0.0020  0.0166  0.0463  0.0127 </r>
       </set>
      </set>
      <set comment="kpoint 33">
       <set comment="band 1">
        <r>  0.1798  0.0003  0.0011  0.0064  0.0001  0.0001  0.0001  0.0002  0.0000 </r>
        <r>  0.2903  0.0021  0.0007  0.0008  0.0002  0.0001  0.0001  0.0003  0.0001 </r>
        <r>  0.1798  0.0039  0.0011  0.0028  0.0000  0.0002  0.0001  0.0002  0.0001 </r>
       </set>
       <set comment="band 2">
        <r>  0.3000  0.0011  0.0017  0.0012  0.0002  0.0001  0.0000  0.0007  0.0000 </r>
        <r>  0.0624  0.0020  0.0073  0.0056  0.0000  0.0004  0.0000  0.0002  0.0001 </r>
        <r>  0.3000  0.0004  0.0017  0.0019  0.0001  0.0003  0.0000  0.0004  0.0001 </r>
       </set>
       <set comment="band 3">
        <r>  0.1862  0.0013  0.0037  0.0062  0.0002  0.0001  0.0000  0.0006  0.0000 </r>
        <r>  0.3173  0.0004  0.0000  0.0007  0.0000  0.0001  0.0000  0.0002  0.0000 </r>
        <r>  0.1862  0.0030  0.0037  0.0045  0.0001  0.0003  0.0000  0.0003  0.0001 </r>
       </set>
       <set comment="band 4">
        <r>  0.0092  0.0219  0.0620  0.0510  0.0001  0.0001  0.0001  0.0006  0.0000 </r>
        <r>  0.0005  0.0282  0.0100  0.0735  0.0002  0.0003  0.0001  0.0008  0.0001 </r>
        <r>  0.0092  0.0149  0.0620  0.0580  0.0001  0.0003  0.0001  0.0003  0.0000 </r>
       </set>
       <set comment="band 5">
        <r>  0.0048  0.0138  0.0693  0.0608  0.0008  0.0002  0.0001  0.0007  0.0002 </r>
        <r>  0.0145  0.0056  0.1308  0.0082  0.0005  0.0016  0.0000  0.0006  0.0004 </r>
        <r>  0.0048  0.0397  0.0693  0.0349  0.0005  0.0006  0.0001  0.0003  0.0004 </r>
       </set>
       <set comment="band 6">
        <r>  0.0004  0.0822  0.0117  0.0411  0.0001  0.0006  0.0001  0.0002  0.0004 </r>
        <r>  0.0097  0.1268  0.0069  0.0454  0.0000  0.0005  0.0002  0.0003  0.0000 </r>
        <r>  0.0004  0.1008  0.0117  0.0224  0.0004  0.0003  0.0001  0.0005  0.0001 </r>
       </set>
       <set comment="band 7">
        <r>  0.0098  0.0176  0.0799  0.0390  0.0003  0.0008  0.0009  0.0044  0.0001 </r>
        <r>  0.0001  0.0403  0.0399  0.0860  0.0012  0.0005  0.0010  0.0013  0.0004 </r>
        <r>  0.0098  0.0475  0.0799  0.0090  0.0003  0.0024  0.0009  0.0028  0.0001 </r>
       </set>
       <set comment="band 8">
        <r>  0.0159  0.1108  0.0375  0.0139  0.0016  0.0018  0.0002  0.0012  0.0001 </r>
        <r>  0.0188  0.0202  0.0743  0.0131  0.0024  0.0012  0.0000  0.0004  0.0010 </r>
        <r>  0.0159  0.0438  0.0375  0.0810  0.0008  0.0023  0.0002  0.0007  0.0009 </r>
       </set>
       <set comment="band 9">
        <r>  0.0205  0.0980  0.0089  0.0259  0.0003  0.0014  0.0007  0.0014  0.0002 </r>
        <r>  0.0089  0.0888  0.0106  0.0718  0.0005  0.0015  0.0000  0.0011  0.0002 </r>
        <r>  0.0205  0.0211  0.0089  0.1028  0.0004  0.0023  0.0007  0.0005  0.0001 </r>
       </set>
       <set comment="band 10">
        <r>  0.0055  0.0768  0.0104  0.0566  0.0037  0.0013  0.0031  0.0018  0.0021 </r>
        <r>  0.0071  0.0836  0.0362  0.0280  0.0011  0.0077  0.0046  0.0046  0.0010 </r>
        <r>  0.0055  0.1175  0.0104  0.0158  0.0048  0.0021  0.0031  0.0009  0.0009 </r>
       </set>
       <set comment="band 11">
        <r>  0.0042  0.0039  0.1185  0.0586  0.0021  0.0045  0.0003  0.0004  0.0006 </r>
        <r>  0.0230  0.0274  0.0931  0.0331  0.0026  0.0030  0.0004  0.0010  0.0011 </r>
        <r>  0.0042  0.0419  0.1185  0.0205  0.0018  0.0016  0.0003  0.0032  0.0009 </r>
       </set>
       <set comment="band 12">
        <r>  0.0106  0.0253  0.0879  0.0993  0.0002  0.0008  0.0013  0.0055  0.0001 </r>
        <r>  0.0005  0.0253  0.0637  0.0687  0.0008  0.0017  0.0014  0.0051  0.0003 </r>
        <r>  0.0106  0.0385  0.0879  0.0861  0.0002  0.0027  0.0013  0.0035  0.0001 </r>
       </set>
       <set comment="band 13">
        <r>  0.0016  0.0274  0.0043  0.0028  0.0167  0.0069  0.0089  0.0016  0.0038 </r>
        <r>  0.0000  0.0268  0.0211  0.0171  0.0096  0.0019  0.0114  0.0048  0.0034 </r>
        <r>  0.0016  0.0156  0.0043  0.0146  0.0139  0.0003  0.0089  0.0082  0.0067 </r>
       </set>
       <set comment="band 14">
        <r>  0.0023  0.0066  0.0106  0.0188  0.0073  0.0117  0.0101  0.0155  0.0076 </r>
        <r>  0.0002  0.0094  0.0177  0.0162  0.0192  0.0195  0.0064  0.0148  0.0077 </r>
        <r>  0.0023  0.0068  0.0106  0.0187  0.0140  0.0205  0.0101  0.0066  0.0009 </r>
       </set>
       <set comment="band 15">
        <r>  0.0025  0.0178  0.0026  0.0372  0.0106  0.0006  0.0023  0.0187  0.0029 </r>
        <r>  0.0073  0.0093  0.0001  0.0277  0.0035  0.0091  0.0473  0.0051  0.0017 </r>
        <r>  0.0025  0.0114  0.0026  0.0436  0.0063  0.0147  0.0023  0.0046  0.0072 </r>
       </set>
       <set comment="band 16">
        <r>  0.0060  0.0001  0.0092  0.0395  0.0163  0.0077  0.0367  0.0000  0.0105 </r>
        <r>  0.0044  0.0134  0.0088  0.0173  0.0121  0.0108  0.0078  0.0167  0.0176 </r>
        <r>  0.0060  0.0301  0.0092  0.0095  0.0158  0.0020  0.0367  0.0057  0.0110 </r>
       </set>
       <set comment="band 17">
        <r>  0.0024  0.0239  0.0006  0.0003  0.0050  0.0586  0.0133  0.0007  0.0023 </r>
        <r>  0.0003  0.0135  0.0028  0.0356  0.0036  0.0391  0.0024  0.0148  0.0039 </r>
        <r>  0.0024  0.0084  0.0006  0.0158  0.0017  0.0171  0.0133  0.0421  0.0057 </r>
       </set>
       <set comment="band 18">
        <r>  0.0020  0.0059  0.0020  0.0031  0.0087  0.0274  0.0164  0.0118  0.0597 </r>
        <r>  0.0031  0.0151  0.0032  0.0115  0.0043  0.0024  0.0218  0.0021  0.0093 </r>
        <r>  0.0020  0.0065  0.0020  0.0025  0.0274  0.0312  0.0164  0.0079  0.0410 </r>
       </set>
       <set comment="band 19">
        <r>  0.0062  0.0070  0.0028  0.0101  0.0259  0.0041  0.0228  0.0081  0.0448 </r>
        <r>  0.0016  0.0043  0.0076  0.0082  0.0065  0.0139  0.0045  0.0169  0.0140 </r>
        <r>  0.0062  0.0042  0.0028  0.0129  0.0196  0.0119  0.0228  0.0003  0.0512 </r>
       </set>
       <set comment="band 20">
        <r>  0.0207  0.0063  0.0062  0.0054  0.0007  0.0039  0.0151  0.0073  0.0013 </r>
        <r>  0.0054  0.0038  0.0044  0.0017  0.0403  0.0215  0.0012  0.0201  0.1037 </r>
        <r>  0.0207  0.0059  0.0062  0.0058  0.0012  0.0042  0.0151  0.0070  0.0008 </r>
       </set>
       <set comment="band 21">
        <r>  0.0084  0.0135  0.0065  0.0097  0.0059  0.0192  0.0501  0.0110  0.0280 </r>
        <r>  0.0053  0.0117  0.0010  0.0092  0.0072  0.0026  0.0057  0.0049  0.0212 </r>
        <r>  0.0084  0.0011  0.0065  0.0220  0.0127  0.0016  0.0501  0.0286  0.0213 </r>
       </set>
       <set comment="band 22">
        <r>  0.0054  0.0027  0.0056  0.0013  0.0177  0.0030  0.0031  0.0155  0.0711 </r>
        <r>  0.0163  0.0045  0.0075  0.0015  0.0094  0.0071  0.0241  0.0057  0.0067 </r>
        <r>  0.0054  0.0032  0.0056  0.0008  0.0274  0.0168  0.0031  0.0017  0.0614 </r>
       </set>
       <set comment="band 23">
        <r>  0.0158  0.0009  0.0064  0.0014  0.0275  0.0271  0.0047  0.0297  0.0021 </r>
        <r>  0.0072  0.0049  0.0208  0.0045  0.0636  0.0027  0.0613  0.0082  0.0241 </r>
        <r>  0.0158  0.0010  0.0064  0.0013  0.0140  0.0071  0.0047  0.0497  0.0156 </r>
       </set>
       <set comment="band 24">
        <r>  0.0039  0.0116  0.0070  0.0093  0.0238  0.0043  0.0305  0.0105  0.0224 </r>
        <r>  0.0077  0.0075  0.0163  0.0059  0.0091  0.0107  0.0125  0.0321  0.0258 </r>
        <r>  0.0039  0.0023  0.0070  0.0186  0.0427  0.0111  0.0305  0.0037  0.0035 </r>
       </set>
       <set comment="band 25">
        <r>  0.0042  0.0047  0.0247  0.0076  0.0100  0.0211  0.0178  0.0801  0.0076 </r>
        <r>  0.0139  0.0156  0.0003  0.0195  0.0114  0.0111  0.0328  0.0073  0.0317 </r>
        <r>  0.0042  0.0120  0.0247  0.0003  0.0007  0.0904  0.0178  0.0108  0.0168 </r>
       </set>
       <set comment="band 26">
        <r>  0.0011  0.0063  0.0017  0.0116  0.0041  0.0085  0.0021  0.0039  0.0084 </r>
        <r>  0.0013  0.0002  0.0025  0.0002  0.0001  0.0669  0.0050  0.0493  0.0001 </r>
        <r>  0.0011  0.0176  0.0017  0.0003  0.0029  0.0079  0.0021  0.0045  0.0096 </r>
       </set>
       <set comment="band 27">
        <r>  0.0036  0.0025  0.0376  0.0036  0.0224  0.0416  0.0106  0.0624  0.0049 </r>
        <r>  0.0058  0.0014  0.0095  0.0029  0.0189  0.0421  0.0037  0.0699  0.0273 </r>
        <r>  0.0036  0.0044  0.0376  0.0018  0.0175  0.0391  0.0106  0.0649  0.0098 </r>
       </set>
       <set comment="band 28">
        <r>  0.0001  0.0047  0.0006  0.0012  0.0278  0.0237  0.0342  0.0279  0.0199 </r>
        <r>  0.0006  0.0018  0.0132  0.0017  0.0219  0.0071  0.0622  0.0065  0.0259 </r>
        <r>  0.0001  0.0014  0.0006  0.0045  0.0037  0.0061  0.0342  0.0455  0.0440 </r>
       </set>
       <set comment="band 29">
        <r>  0.0086  0.0179  0.0007  0.0103  0.0144  0.0049  0.0047  0.0098  0.0391 </r>
        <r>  0.0000  0.0193  0.0071  0.0196  0.0017  0.0049  0.0053  0.0024  0.0016 </r>
        <r>  0.0086  0.0090  0.0007  0.0193  0.0332  0.0111  0.0047  0.0036  0.0201 </r>
       </set>
       <set comment="band 30">
        <r>  0.0049  0.0023  0.0063  0.0009  0.0571  0.0018  0.0458  0.0236  0.0070 </r>
        <r>  0.0017  0.0018  0.0008  0.0030  0.0016  0.0058  0.0215  0.0107  0.0039 </r>
        <r>  0.0048  0.0002  0.0063  0.0030  0.0179  0.0126  0.0456  0.0127  0.0456 </r>
       </set>
       <set comment="band 31">
        <r>  0.0094  0.0052  0.0046  0.0090  0.0020  0.0321  0.0182  0.0041  0.0022 </r>
        <r>  0.0150  0.0062  0.0013  0.0128  0.0729  0.0134  0.0000  0.0405  0.0365 </r>
        <r>  0.0094  0.0046  0.0046  0.0097  0.0026  0.0116  0.0184  0.0246  0.0014 </r>
       </set>
       <set comment="band 32">
        <r>  0.0078  0.0024  0.0032  0.0089  0.0331  0.0008  0.0029  0.0043  0.0253 </r>
        <r>  0.0110  0.0002  0.0020  0.0006  0.0018  0.0105  0.0058  0.0035  0.0028 </r>
        <r>  0.0078  0.0034  0.0031  0.0076  0.0426  0.0048  0.0032  0.0003  0.0190 </r>
       </set>
      </set>
      <set comment="kpoint 34">
       <set comment="band 1">
        <r>  0.2082  0.0010  0.0014  0.0018  0.0000  0.0001  0.0000  0.0001  0.0000 </r>
        <r>  0.2120  0.0021  0.0011  0.0004  0.0001  0.0001  0.0000  0.0001  0.0000 </r>
        <r>  0.1964  0.0024  0.0013  0.0009  0.0000  0.0001  0.0000  0.0001  0.0000 </r>
       </set>
       <set comment="band 2">
        <r>  0.2113  0.0004  0.0087  0.0011  0.0001  0.0002  0.0000  0.0003  0.0001 </r>
        <r>  0.1989  0.0005  0.0089  0.0011  0.0000  0.0003  0.0000  0.0001  0.0001 </r>
        <r>  0.2332  0.0005  0.0077  0.0006  0.0001  0.0004  0.0000  0.0002  0.0001 </r>
       </set>
       <set comment="band 3">
        <r>  0.2422  0.0001  0.0043  0.0026  0.0001  0.0002  0.0000  0.0001  0.0001 </r>
        <r>  0.2563  0.0027  0.0052  0.0016  0.0000  0.0003  0.0000  0.0001  0.0001 </r>
        <r>  0.2356  0.0036  0.0056  0.0013  0.0000  0.0003  0.0000  0.0000  0.0001 </r>
       </set>
       <set comment="band 4">
        <r>  0.0148  0.1001  0.0142  0.0179  0.0005  0.0001  0.0009  0.0006  0.0003 </r>
        <r>  0.0053  0.0398  0.0880  0.0030  0.0001  0.0005  0.0000  0.0003  0.0008 </r>
        <r>  0.0039  0.0713  0.0733  0.0232  0.0001  0.0011  0.0004  0.0006  0.0010 </r>
       </set>
       <set comment="band 5">
        <r>  0.0059  0.0145  0.1321  0.0035  0.0003  0.0002  0.0000  0.0028  0.0001 </r>
        <r>  0.0089  0.1043  0.0265  0.0118  0.0006  0.0001  0.0007  0.0006  0.0006 </r>
        <r>  0.0039  0.0577  0.0736  0.0264  0.0004  0.0001  0.0007  0.0004  0.0000 </r>
       </set>
       <set comment="band 6">
        <r>  0.0095  0.0133  0.0064  0.1977  0.0002  0.0006  0.0003  0.0001  0.0002 </r>
        <r>  0.0030  0.0003  0.0274  0.1234  0.0007  0.0015  0.0002  0.0010  0.0000 </r>
        <r>  0.0150  0.0291  0.0047  0.0666  0.0006  0.0002  0.0000  0.0002  0.0004 </r>
       </set>
       <set comment="band 7">
        <r>  0.0129  0.0002  0.0459  0.0472  0.0004  0.0002  0.0005  0.0018  0.0012 </r>
        <r>  0.0073  0.0639  0.0665  0.1385  0.0005  0.0005  0.0005  0.0006  0.0005 </r>
        <r>  0.0124  0.0074  0.0015  0.0524  0.0011  0.0012  0.0003  0.0026  0.0003 </r>
       </set>
       <set comment="band 8">
        <r>  0.0152  0.0216  0.0090  0.0248  0.0012  0.0005  0.0003  0.0011  0.0020 </r>
        <r>  0.0192  0.0198  0.0040  0.0518  0.0020  0.0001  0.0004  0.0010  0.0002 </r>
        <r>  0.0004  0.0544  0.1037  0.1820  0.0003  0.0001  0.0002  0.0004  0.0005 </r>
       </set>
       <set comment="band 9">
        <r>  0.0050  0.2268  0.0675  0.0072  0.0002  0.0003  0.0001  0.0000  0.0001 </r>
        <r>  0.0101  0.0672  0.0451  0.0010  0.0002  0.0025  0.0003  0.0003  0.0010 </r>
        <r>  0.0229  0.0683  0.0091  0.0194  0.0000  0.0041  0.0007  0.0002  0.0009 </r>
       </set>
       <set comment="band 10">
        <r>  0.0132  0.0668  0.0281  0.0739  0.0009  0.0007  0.0009  0.0036  0.0004 </r>
        <r>  0.0153  0.1127  0.0042  0.0921  0.0001  0.0003  0.0020  0.0029  0.0000 </r>
        <r>  0.0106  0.0964  0.0039  0.0063  0.0013  0.0016  0.0013  0.0009  0.0023 </r>
       </set>
       <set comment="band 11">
        <r>  0.0045  0.0124  0.0512  0.0452  0.0015  0.0031  0.0019  0.0013  0.0018 </r>
        <r>  0.0037  0.0111  0.1930  0.0019  0.0006  0.0063  0.0007  0.0021  0.0015 </r>
        <r>  0.0128  0.0874  0.0663  0.0307  0.0006  0.0014  0.0015  0.0009  0.0014 </r>
       </set>
       <set comment="band 12">
        <r>  0.0080  0.0220  0.0907  0.0625  0.0037  0.0020  0.0002  0.0033  0.0019 </r>
        <r>  0.0157  0.0591  0.0028  0.0626  0.0015  0.0017  0.0025  0.0008  0.0028 </r>
        <r>  0.0055  0.0080  0.1239  0.0789  0.0024  0.0025  0.0002  0.0012  0.0013 </r>
       </set>
       <set comment="band 13">
        <r>  0.0009  0.0001  0.0006  0.0073  0.0027  0.0095  0.0191  0.0004  0.0166 </r>
        <r>  0.0004  0.0005  0.0038  0.0113  0.0015  0.0040  0.0193  0.0039  0.0178 </r>
        <r>  0.0015  0.0048  0.0079  0.0112  0.0043  0.0069  0.0175  0.0030  0.0151 </r>
       </set>
       <set comment="band 14">
        <r>  0.0000  0.0130  0.0323  0.0009  0.0037  0.0017  0.0146  0.0119  0.0132 </r>
        <r>  0.0004  0.0062  0.0206  0.0033  0.0033  0.0134  0.0109  0.0055  0.0087 </r>
        <r>  0.0011  0.0005  0.0042  0.0002  0.0218  0.0067  0.0207  0.0061  0.0114 </r>
       </set>
       <set comment="band 15">
        <r>  0.0066  0.0016  0.0067  0.0033  0.0065  0.0071  0.0376  0.0038  0.0082 </r>
        <r>  0.0029  0.0010  0.0036  0.0010  0.0153  0.0109  0.0307  0.0031  0.0169 </r>
        <r>  0.0015  0.0021  0.0050  0.0094  0.0019  0.0110  0.0242  0.0037  0.0087 </r>
       </set>
       <set comment="band 16">
        <r>  0.0121  0.0090  0.0065  0.0033  0.0262  0.0220  0.0039  0.0047  0.0085 </r>
        <r>  0.0083  0.0046  0.0006  0.0037  0.0315  0.0055  0.0010  0.0186  0.0053 </r>
        <r>  0.0079  0.0078  0.0035  0.0019  0.0113  0.0031  0.0085  0.0257  0.0161 </r>
       </set>
       <set comment="band 17">
        <r>  0.0191  0.0242  0.0003  0.0145  0.0171  0.0079  0.0003  0.0178  0.0022 </r>
        <r>  0.0213  0.0304  0.0040  0.0022  0.0005  0.0015  0.0072  0.0185  0.0129 </r>
        <r>  0.0238  0.0169  0.0068  0.0023  0.0341  0.0076  0.0056  0.0046  0.0019 </r>
       </set>
       <set comment="band 18">
        <r>  0.0004  0.0018  0.0096  0.0043  0.0235  0.0358  0.0024  0.0056  0.0204 </r>
        <r>  0.0001  0.0014  0.0220  0.0101  0.0123  0.0325  0.0004  0.0105  0.0139 </r>
        <r>  0.0008  0.0011  0.0057  0.0024  0.0087  0.0311  0.0007  0.0422  0.0252 </r>
       </set>
       <set comment="band 19">
        <r>  0.0004  0.0013  0.0356  0.0140  0.0217  0.0067  0.0043  0.0162  0.0038 </r>
        <r>  0.0089  0.0079  0.0010  0.0017  0.0612  0.0018  0.0169  0.0060  0.0020 </r>
        <r>  0.0008  0.0112  0.0261  0.0145  0.0211  0.0012  0.0031  0.0021  0.0002 </r>
       </set>
       <set comment="band 20">
        <r>  0.0067  0.0080  0.0046  0.0089  0.0135  0.0062  0.0097  0.0558  0.0281 </r>
        <r>  0.0012  0.0050  0.0048  0.0063  0.0024  0.0110  0.0001  0.0615  0.0251 </r>
        <r>  0.0104  0.0121  0.0163  0.0060  0.0020  0.0056  0.0039  0.0095  0.0181 </r>
       </set>
       <set comment="band 21">
        <r>  0.0013  0.0028  0.0020  0.0018  0.0020  0.0102  0.0002  0.0062  0.0056 </r>
        <r>  0.0031  0.0003  0.0118  0.0087  0.0039  0.0170  0.0109  0.0081  0.0233 </r>
        <r>  0.0004  0.0061  0.0172  0.0030  0.0268  0.0207  0.0094  0.0050  0.0096 </r>
       </set>
       <set comment="band 22">
        <r>  0.0129  0.0068  0.0015  0.0085  0.0284  0.0101  0.0157  0.0446  0.0099 </r>
        <r>  0.0035  0.0035  0.0112  0.0154  0.0020  0.0089  0.0077  0.0177  0.0043 </r>
        <r>  0.0205  0.0023  0.0053  0.0002  0.0170  0.0469  0.0173  0.0686  0.0113 </r>
       </set>
       <set comment="band 23">
        <r>  0.0059  0.0076  0.0214  0.0007  0.0075  0.0123  0.0066  0.0011  0.0412 </r>
        <r>  0.0098  0.0087  0.0224  0.0013  0.0100  0.0122  0.0083  0.0074  0.0107 </r>
        <r>  0.0007  0.0050  0.0025  0.0081  0.0008  0.0201  0.0243  0.0187  0.0398 </r>
       </set>
       <set comment="band 24">
        <r>  0.0049  0.0053  0.0041  0.0018  0.0135  0.0395  0.0178  0.0269  0.0124 </r>
        <r>  0.0071  0.0040  0.0021  0.0093  0.0171  0.0660  0.0306  0.0229  0.0228 </r>
        <r>  0.0008  0.0016  0.0004  0.0196  0.0079  0.0070  0.0067  0.0165  0.0079 </r>
       </set>
       <set comment="band 25">
        <r>  0.0113  0.0053  0.0127  0.0243  0.0234  0.0469  0.0317  0.0292  0.0197 </r>
        <r>  0.0036  0.0008  0.0068  0.0145  0.0400  0.0027  0.0309  0.0151  0.0184 </r>
        <r>  0.0095  0.0069  0.0038  0.0055  0.0178  0.0372  0.0020  0.0315  0.0129 </r>
       </set>
       <set comment="band 26">
        <r>  0.0045  0.0109  0.0006  0.0045  0.0400  0.0079  0.0465  0.0251  0.0077 </r>
        <r>  0.0006  0.0144  0.0054  0.0059  0.0094  0.0286  0.0254  0.0560  0.0006 </r>
        <r>  0.0013  0.0171  0.0141  0.0024  0.0550  0.0051  0.0573  0.0092  0.0233 </r>
       </set>
       <set comment="band 27">
        <r>  0.0016  0.0021  0.0013  0.0046  0.0017  0.0406  0.0285  0.0048  0.0023 </r>
        <r>  0.0007  0.0081  0.0074  0.0016  0.0004  0.0169  0.0510  0.0005  0.0156 </r>
        <r>  0.0024  0.0032  0.0044  0.0006  0.0049  0.0144  0.0296  0.0120  0.0078 </r>
       </set>
       <set comment="band 28">
        <r>  0.0042  0.0062  0.0094  0.0021  0.0006  0.0093  0.0185  0.0109  0.0004 </r>
        <r>  0.0113  0.0154  0.0009  0.0010  0.0358  0.0176  0.0063  0.0103  0.0001 </r>
        <r>  0.0054  0.0068  0.0015  0.0117  0.0106  0.0104  0.0098  0.0051  0.0078 </r>
       </set>
       <set comment="band 29">
        <r>  0.0042  0.0365  0.0043  0.0009  0.0201  0.0052  0.0373  0.0010  0.0201 </r>
        <r>  0.0012  0.0136  0.0249  0.0016  0.0198  0.0426  0.0132  0.0023  0.0112 </r>
        <r>  0.0023  0.0219  0.0149  0.0015  0.0043  0.0981  0.0789  0.0042  0.0063 </r>
       </set>
       <set comment="band 30">
        <r>  0.0042  0.0038  0.0009  0.0025  0.0573  0.0350  0.0303  0.0173  0.0309 </r>
        <r>  0.0039  0.0081  0.0010  0.0005  0.0318  0.0268  0.0363  0.0449  0.0523 </r>
        <r>  0.0008  0.0042  0.0166  0.0079  0.0599  0.0254  0.0114  0.0337  0.0113 </r>
       </set>
       <set comment="band 31">
        <r>  0.0010  0.0020  0.0005  0.0069  0.0208  0.0877  0.0102  0.0033  0.0446 </r>
        <r>  0.0117  0.0220  0.0029  0.0005  0.0070  0.0816  0.0385  0.0059  0.0661 </r>
        <r>  0.0037  0.0153  0.0132  0.0000  0.0316  0.0525  0.0229  0.0003  0.0293 </r>
       </set>
       <set comment="band 32">
        <r>  0.0077  0.0070  0.0041  0.0080  0.0316  0.0160  0.0546  0.0045  0.0074 </r>
        <r>  0.0011  0.0049  0.0057  0.0168  0.0654  0.0096  0.0106  0.0099  0.0643 </r>
        <r>  0.0086  0.0046  0.0053  0.0127  0.0003  0.0345  0.0040  0.0259  0.0519 </r>
       </set>
      </set>
      <set comment="kpoint 35">
       <set comment="band 1">
        <r>  0.2075  0.0012  0.0012  0.0031  0.0000  0.0001  0.0000  0.0002  0.0000 </r>
        <r>  0.2342  0.0026  0.0008  0.0005  0.0001  0.0001  0.0001  0.0002  0.0000 </r>
        <r>  0.1883  0.0035  0.0011  0.0016  0.0000  0.0002  0.0000  0.0001  0.0000 </r>
       </set>
       <set comment="band 2">
        <r>  0.2291  0.0007  0.0061  0.0017  0.0001  0.0002  0.0000  0.0005  0.0001 </r>
        <r>  0.1610  0.0008  0.0081  0.0026  0.0000  0.0004  0.0000  0.0001  0.0001 </r>
        <r>  0.2715  0.0004  0.0050  0.0011  0.0001  0.0004  0.0000  0.0004  0.0001 </r>
       </set>
       <set comment="band 3">
        <r>  0.2250  0.0003  0.0030  0.0053  0.0001  0.0002  0.0000  0.0001  0.0001 </r>
        <r>  0.2718  0.0028  0.0021  0.0026  0.0000  0.0002  0.0000  0.0001  0.0000 </r>
        <r>  0.2030  0.0041  0.0036  0.0038  0.0000  0.0004  0.0000  0.0000  0.0002 </r>
       </set>
       <set comment="band 4">
        <r>  0.0106  0.0960  0.0052  0.0245  0.0004  0.0001  0.0005  0.0002  0.0001 </r>
        <r>  0.0075  0.0671  0.0603  0.0027  0.0001  0.0009  0.0001  0.0002  0.0008 </r>
        <r>  0.0002  0.0580  0.0917  0.0106  0.0002  0.0010  0.0002  0.0004  0.0007 </r>
       </set>
       <set comment="band 5">
        <r>  0.0068  0.0096  0.1406  0.0043  0.0007  0.0002  0.0001  0.0039  0.0001 </r>
        <r>  0.0047  0.0201  0.0361  0.0513  0.0009  0.0000  0.0002  0.0018  0.0005 </r>
        <r>  0.0122  0.0678  0.0500  0.0557  0.0006  0.0000  0.0002  0.0005  0.0000 </r>
       </set>
       <set comment="band 6">
        <r>  0.0018  0.0191  0.0288  0.1765  0.0001  0.0001  0.0000  0.0005  0.0010 </r>
        <r>  0.0116  0.0864  0.0802  0.0051  0.0001  0.0018  0.0004  0.0004  0.0002 </r>
        <r>  0.0148  0.0180  0.0004  0.0114  0.0007  0.0008  0.0005  0.0023  0.0001 </r>
       </set>
       <set comment="band 7">
        <r>  0.0194  0.0156  0.0280  0.0405  0.0000  0.0010  0.0009  0.0007  0.0000 </r>
        <r>  0.0075  0.0254  0.0251  0.1664  0.0006  0.0006  0.0005  0.0002  0.0000 </r>
        <r>  0.0119  0.0206  0.0214  0.0707  0.0005  0.0003  0.0004  0.0012  0.0005 </r>
       </set>
       <set comment="band 8">
        <r>  0.0226  0.0094  0.0150  0.0169  0.0013  0.0013  0.0001  0.0016  0.0007 </r>
        <r>  0.0130  0.0056  0.0170  0.0739  0.0015  0.0001  0.0003  0.0013  0.0003 </r>
        <r>  0.0037  0.0449  0.0885  0.1735  0.0002  0.0001  0.0000  0.0003  0.0003 </r>
       </set>
       <set comment="band 9">
        <r>  0.0032  0.2389  0.0641  0.0027  0.0004  0.0002  0.0000  0.0001  0.0001 </r>
        <r>  0.0122  0.0928  0.0460  0.0054  0.0008  0.0020  0.0002  0.0007  0.0010 </r>
        <r>  0.0238  0.0427  0.0093  0.0044  0.0002  0.0063  0.0009  0.0002  0.0009 </r>
       </set>
       <set comment="band 10">
        <r>  0.0114  0.0353  0.0010  0.0140  0.0027  0.0044  0.0016  0.0008  0.0004 </r>
        <r>  0.0184  0.1137  0.0420  0.0227  0.0001  0.0061  0.0029  0.0005  0.0007 </r>
        <r>  0.0068  0.1863  0.0560  0.0050  0.0000  0.0033  0.0010  0.0001  0.0005 </r>
       </set>
       <set comment="band 11">
        <r>  0.0034  0.0084  0.0944  0.1183  0.0009  0.0028  0.0007  0.0012  0.0020 </r>
        <r>  0.0021  0.0156  0.1196  0.0546  0.0003  0.0035  0.0009  0.0050  0.0013 </r>
        <r>  0.0027  0.0013  0.0791  0.0433  0.0020  0.0001  0.0012  0.0008  0.0041 </r>
       </set>
       <set comment="band 12">
        <r>  0.0030  0.0242  0.1092  0.0851  0.0011  0.0013  0.0022  0.0025  0.0024 </r>
        <r>  0.0045  0.0378  0.0450  0.0991  0.0002  0.0006  0.0031  0.0002  0.0028 </r>
        <r>  0.0033  0.0318  0.0829  0.0925  0.0009  0.0007  0.0002  0.0017  0.0005 </r>
       </set>
       <set comment="band 13">
        <r>  0.0024  0.0144  0.0030  0.0059  0.0123  0.0041  0.0078  0.0098  0.0178 </r>
        <r>  0.0007  0.0043  0.0188  0.0174  0.0100  0.0056  0.0180  0.0005  0.0013 </r>
        <r>  0.0034  0.0019  0.0044  0.0036  0.0175  0.0070  0.0085  0.0061  0.0034 </r>
       </set>
       <set comment="band 14">
        <r>  0.0015  0.0067  0.0044  0.0067  0.0000  0.0068  0.0168  0.0023  0.0094 </r>
        <r>  0.0007  0.0064  0.0070  0.0059  0.0015  0.0057  0.0012  0.0118  0.0262 </r>
        <r>  0.0011  0.0068  0.0045  0.0445  0.0053  0.0053  0.0165  0.0043  0.0215 </r>
       </set>
       <set comment="band 15">
        <r>  0.0021  0.0006  0.0027  0.0009  0.0096  0.0077  0.0331  0.0132  0.0045 </r>
        <r>  0.0003  0.0021  0.0043  0.0084  0.0265  0.0144  0.0291  0.0069  0.0036 </r>
        <r>  0.0006  0.0023  0.0206  0.0054  0.0103  0.0074  0.0303  0.0064  0.0000 </r>
       </set>
       <set comment="band 16">
        <r>  0.0143  0.0285  0.0085  0.0036  0.0208  0.0076  0.0045  0.0235  0.0045 </r>
        <r>  0.0250  0.0091  0.0026  0.0003  0.0180  0.0012  0.0045  0.0019  0.0180 </r>
        <r>  0.0198  0.0186  0.0004  0.0016  0.0055  0.0066  0.0047  0.0412  0.0009 </r>
       </set>
       <set comment="band 17">
        <r>  0.0050  0.0037  0.0023  0.0191  0.0258  0.0202  0.0109  0.0023  0.0122 </r>
        <r>  0.0028  0.0116  0.0082  0.0003  0.0007  0.0165  0.0060  0.0469  0.0022 </r>
        <r>  0.0065  0.0053  0.0043  0.0007  0.0306  0.0094  0.0076  0.0105  0.0402 </r>
       </set>
       <set comment="band 18">
        <r>  0.0060  0.0248  0.0090  0.0074  0.0044  0.0473  0.0017  0.0095  0.0085 </r>
        <r>  0.0143  0.0338  0.0031  0.0066  0.0116  0.0182  0.0115  0.0041  0.0149 </r>
        <r>  0.0006  0.0251  0.0004  0.0006  0.0189  0.0430  0.0080  0.0071  0.0116 </r>
       </set>
       <set comment="band 19">
        <r>  0.0268  0.0066  0.0092  0.0017  0.0169  0.0033  0.0053  0.0265  0.0250 </r>
        <r>  0.0034  0.0008  0.0030  0.0015  0.0242  0.0227  0.0020  0.0421  0.0284 </r>
        <r>  0.0320  0.0002  0.0094  0.0017  0.0024  0.0004  0.0093  0.0317  0.0111 </r>
       </set>
       <set comment="band 20">
        <r>  0.0009  0.0032  0.0202  0.0043  0.0107  0.0209  0.0067  0.0368  0.0326 </r>
        <r>  0.0044  0.0188  0.0091  0.0058  0.0350  0.0117  0.0234  0.0130  0.0094 </r>
        <r>  0.0041  0.0096  0.0013  0.0039  0.0242  0.0085  0.0154  0.0083  0.0042 </r>
       </set>
       <set comment="band 21">
        <r>  0.0073  0.0066  0.0013  0.0005  0.0329  0.0043  0.0359  0.0091  0.0145 </r>
        <r>  0.0089  0.0007  0.0107  0.0014  0.0106  0.0206  0.0344  0.0119  0.0238 </r>
        <r>  0.0000  0.0008  0.0069  0.0010  0.0069  0.0136  0.0076  0.0144  0.0390 </r>
       </set>
       <set comment="band 22">
        <r>  0.0073  0.0046  0.0053  0.0084  0.0153  0.0034  0.0111  0.0282  0.0317 </r>
        <r>  0.0023  0.0035  0.0047  0.0112  0.0169  0.0004  0.0205  0.0027  0.0124 </r>
        <r>  0.0025  0.0184  0.0099  0.0031  0.0245  0.0156  0.0616  0.0411  0.0076 </r>
       </set>
       <set comment="band 23">
        <r>  0.0025  0.0115  0.0012  0.0017  0.0047  0.0105  0.0375  0.0037  0.0063 </r>
        <r>  0.0013  0.0024  0.0140  0.0081  0.0142  0.0267  0.0424  0.0125  0.0270 </r>
        <r>  0.0022  0.0104  0.0199  0.0070  0.0209  0.0395  0.0059  0.0054  0.0232 </r>
       </set>
       <set comment="band 24">
        <r>  0.0011  0.0025  0.0103  0.0022  0.0345  0.0279  0.0132  0.0073  0.0145 </r>
        <r>  0.0018  0.0001  0.0016  0.0005  0.0237  0.0011  0.0026  0.0005  0.0012 </r>
        <r>  0.0068  0.0019  0.0025  0.0098  0.0375  0.0166  0.0107  0.0083  0.0277 </r>
       </set>
       <set comment="band 25">
        <r>  0.0011  0.0110  0.0113  0.0005  0.0395  0.0084  0.0350  0.0001  0.0252 </r>
        <r>  0.0020  0.0128  0.0002  0.0076  0.0315  0.0190  0.0046  0.0041  0.0194 </r>
        <r>  0.0006  0.0037  0.0009  0.0017  0.0294  0.0154  0.0408  0.0062  0.0051 </r>
       </set>
       <set comment="band 26">
        <r>  0.0001  0.0125  0.0041  0.0241  0.0215  0.0360  0.0224  0.0053  0.0220 </r>
        <r>  0.0000  0.0013  0.0157  0.0278  0.0213  0.0505  0.0227  0.0042  0.0261 </r>
        <r>  0.0001  0.0127  0.0193  0.0286  0.0170  0.0014  0.0001  0.0156  0.0145 </r>
       </set>
       <set comment="band 27">
        <r>  0.0039  0.0045  0.0037  0.0000  0.0113  0.0367  0.0081  0.0442  0.0306 </r>
        <r>  0.0023  0.0395  0.0058  0.0084  0.0007  0.0169  0.0082  0.0541  0.0052 </r>
        <r>  0.0017  0.0038  0.0162  0.0049  0.0107  0.0902  0.0102  0.0213  0.0304 </r>
       </set>
       <set comment="band 28">
        <r>  0.0001  0.0048  0.0133  0.0400  0.0057  0.0054  0.0248  0.0147  0.0241 </r>
        <r>  0.0015  0.0039  0.0182  0.0153  0.0148  0.0128  0.0075  0.0152  0.0139 </r>
        <r>  0.0057  0.0049  0.0004  0.0056  0.0006  0.0208  0.0095  0.0305  0.0180 </r>
       </set>
       <set comment="band 29">
        <r>  0.0027  0.0090  0.0001  0.0104  0.0010  0.0616  0.0002  0.0305  0.0012 </r>
        <r>  0.0026  0.0012  0.0077  0.0004  0.0063  0.0912  0.0343  0.0380  0.0583 </r>
        <r>  0.0128  0.0082  0.0084  0.0100  0.0010  0.0222  0.0323  0.0028  0.0064 </r>
       </set>
       <set comment="band 30">
        <r>  0.0206  0.0019  0.0043  0.0019  0.0052  0.0188  0.0288  0.0524  0.0071 </r>
        <r>  0.0140  0.0013  0.0037  0.0054  0.0106  0.0105  0.0136  0.0181  0.0259 </r>
        <r>  0.0048  0.0054  0.0056  0.0238  0.0195  0.0259  0.0041  0.0194  0.0549 </r>
       </set>
       <set comment="band 31">
        <r>  0.0025  0.0015  0.0111  0.0031  0.0096  0.0280  0.0161  0.0146  0.0633 </r>
        <r>  0.0125  0.0014  0.0033  0.0015  0.0206  0.0165  0.0212  0.0245  0.0283 </r>
        <r>  0.0056  0.0050  0.0017  0.0007  0.0024  0.0112  0.0373  0.0093  0.0220 </r>
       </set>
       <set comment="band 32">
        <r>  0.0042  0.0033  0.0014  0.0069  0.0275  0.0009  0.0027  0.0045  0.0262 </r>
        <r>  0.0057  0.0031  0.0004  0.0149  0.0115  0.0136  0.0561  0.0359  0.0444 </r>
        <r>  0.0026  0.0053  0.0020  0.0056  0.0177  0.0242  0.0395  0.0117  0.0461 </r>
       </set>
      </set>
      <set comment="kpoint 36">
       <set comment="band 1">
        <r>  0.2285  0.0018  0.0013  0.0021  0.0000  0.0001  0.0000  0.0001  0.0001 </r>
        <r>  0.1879  0.0045  0.0011  0.0009  0.0000  0.0001  0.0000  0.0001  0.0000 </r>
        <r>  0.2124  0.0040  0.0010  0.0005  0.0001  0.0001  0.0001  0.0001  0.0000 </r>
       </set>
       <set comment="band 2">
        <r>  0.1838  0.0015  0.0071  0.0014  0.0001  0.0003  0.0000  0.0004  0.0001 </r>
        <r>  0.2646  0.0003  0.0046  0.0007  0.0000  0.0005  0.0000  0.0002  0.0002 </r>
        <r>  0.2117  0.0005  0.0058  0.0012  0.0000  0.0006  0.0000  0.0001  0.0002 </r>
       </set>
       <set comment="band 3">
        <r>  0.2552  0.0001  0.0013  0.0024  0.0000  0.0003  0.0000  0.0000  0.0001 </r>
        <r>  0.2175  0.0052  0.0033  0.0018  0.0000  0.0006  0.0000  0.0000  0.0002 </r>
        <r>  0.2484  0.0050  0.0032  0.0010  0.0000  0.0004  0.0000  0.0001  0.0001 </r>
       </set>
       <set comment="band 4">
        <r>  0.0107  0.0992  0.0142  0.0043  0.0001  0.0000  0.0004  0.0000  0.0001 </r>
        <r>  0.0023  0.0798  0.0582  0.0025  0.0001  0.0002  0.0003  0.0001  0.0004 </r>
        <r>  0.0053  0.0779  0.0514  0.0022  0.0001  0.0002  0.0002  0.0001  0.0005 </r>
       </set>
       <set comment="band 5">
        <r>  0.0012  0.0267  0.1295  0.0015  0.0006  0.0002  0.0001  0.0031  0.0001 </r>
        <r>  0.0023  0.0531  0.0852  0.0119  0.0004  0.0001  0.0003  0.0005  0.0003 </r>
        <r>  0.0013  0.0450  0.0766  0.0275  0.0004  0.0001  0.0002  0.0009  0.0005 </r>
       </set>
       <set comment="band 6">
        <r>  0.0106  0.0026  0.0073  0.1862  0.0001  0.0007  0.0004  0.0003  0.0002 </r>
        <r>  0.0051  0.0130  0.0160  0.1381  0.0004  0.0005  0.0002  0.0005  0.0002 </r>
        <r>  0.0046  0.0000  0.0077  0.0781  0.0002  0.0014  0.0002  0.0005  0.0002 </r>
       </set>
       <set comment="band 7">
        <r>  0.0133  0.0033  0.0457  0.0431  0.0002  0.0001  0.0003  0.0013  0.0014 </r>
        <r>  0.0167  0.0036  0.0022  0.0260  0.0004  0.0008  0.0004  0.0035  0.0006 </r>
        <r>  0.0044  0.0618  0.0645  0.1540  0.0002  0.0003  0.0003  0.0006  0.0007 </r>
       </set>
       <set comment="band 8">
        <r>  0.0109  0.0350  0.0199  0.0600  0.0007  0.0005  0.0004  0.0017  0.0027 </r>
        <r>  0.0070  0.0340  0.1028  0.1925  0.0001  0.0011  0.0001  0.0001  0.0002 </r>
        <r>  0.0127  0.0009  0.0216  0.0294  0.0008  0.0012  0.0003  0.0039  0.0005 </r>
       </set>
       <set comment="band 9">
        <r>  0.0003  0.2223  0.0606  0.0127  0.0001  0.0006  0.0000  0.0002  0.0001 </r>
        <r>  0.0151  0.0791  0.0080  0.0065  0.0000  0.0062  0.0014  0.0001  0.0010 </r>
        <r>  0.0191  0.0798  0.0298  0.0092  0.0008  0.0044  0.0010  0.0001  0.0004 </r>
       </set>
       <set comment="band 10">
        <r>  0.0280  0.0049  0.0592  0.0503  0.0012  0.0017  0.0013  0.0038  0.0001 </r>
        <r>  0.0138  0.0746  0.0311  0.0048  0.0006  0.0020  0.0014  0.0021  0.0030 </r>
        <r>  0.0231  0.1101  0.0136  0.0975  0.0003  0.0009  0.0014  0.0012  0.0004 </r>
       </set>
       <set comment="band 11">
        <r>  0.0036  0.0289  0.0296  0.0396  0.0012  0.0070  0.0007  0.0023  0.0025 </r>
        <r>  0.0154  0.0832  0.0699  0.0046  0.0009  0.0023  0.0004  0.0015  0.0029 </r>
        <r>  0.0018  0.0218  0.1734  0.0325  0.0001  0.0065  0.0002  0.0025  0.0020 </r>
       </set>
       <set comment="band 12">
        <r>  0.0081  0.0172  0.0901  0.0679  0.0011  0.0027  0.0025  0.0041  0.0043 </r>
        <r>  0.0046  0.0274  0.0928  0.0730  0.0007  0.0021  0.0004  0.0012  0.0011 </r>
        <r>  0.0110  0.0460  0.0294  0.0539  0.0004  0.0010  0.0036  0.0018  0.0068 </r>
       </set>
       <set comment="band 13">
        <r>  0.0009  0.0018  0.0074  0.0215  0.0020  0.0086  0.0114  0.0001  0.0162 </r>
        <r>  0.0017  0.0061  0.0122  0.0393  0.0018  0.0070  0.0125  0.0035  0.0196 </r>
        <r>  0.0010  0.0061  0.0072  0.0115  0.0012  0.0044  0.0098  0.0035  0.0184 </r>
       </set>
       <set comment="band 14">
        <r>  0.0007  0.0134  0.0201  0.0008  0.0084  0.0024  0.0131  0.0090  0.0082 </r>
        <r>  0.0032  0.0091  0.0031  0.0004  0.0199  0.0014  0.0150  0.0078  0.0107 </r>
        <r>  0.0016  0.0121  0.0044  0.0004  0.0132  0.0074  0.0189  0.0048  0.0062 </r>
       </set>
       <set comment="band 15">
        <r>  0.0061  0.0238  0.0093  0.0018  0.0135  0.0009  0.0448  0.0123  0.0030 </r>
        <r>  0.0004  0.0043  0.0054  0.0093  0.0007  0.0087  0.0257  0.0148  0.0038 </r>
        <r>  0.0025  0.0063  0.0015  0.0015  0.0130  0.0128  0.0242  0.0026  0.0098 </r>
       </set>
       <set comment="band 16">
        <r>  0.0016  0.0277  0.0059  0.0108  0.0222  0.0254  0.0033  0.0098  0.0040 </r>
        <r>  0.0017  0.0288  0.0125  0.0045  0.0273  0.0051  0.0105  0.0212  0.0030 </r>
        <r>  0.0087  0.0026  0.0029  0.0101  0.0211  0.0002  0.0002  0.0420  0.0144 </r>
       </set>
       <set comment="band 17">
        <r>  0.0008  0.0086  0.0086  0.0155  0.0271  0.0008  0.0058  0.0080  0.0206 </r>
        <r>  0.0049  0.0183  0.0103  0.0054  0.0214  0.0062  0.0235  0.0192  0.0314 </r>
        <r>  0.0013  0.0369  0.0332  0.0012  0.0012  0.0048  0.0115  0.0105  0.0107 </r>
       </set>
       <set comment="band 18">
        <r>  0.0018  0.0232  0.0115  0.0005  0.0144  0.0016  0.0096  0.0304  0.0197 </r>
        <r>  0.0055  0.0013  0.0015  0.0002  0.0405  0.0174  0.0034  0.0107  0.0016 </r>
        <r>  0.0037  0.0197  0.0052  0.0006  0.0192  0.0046  0.0181  0.0243  0.0113 </r>
       </set>
       <set comment="band 19">
        <r>  0.0083  0.0026  0.0198  0.0133  0.0055  0.0257  0.0038  0.0433  0.0073 </r>
        <r>  0.0213  0.0087  0.0033  0.0139  0.0065  0.0145  0.0046  0.0088  0.0184 </r>
        <r>  0.0024  0.0011  0.0079  0.0125  0.0523  0.0103  0.0156  0.0410  0.0013 </r>
       </set>
       <set comment="band 20">
        <r>  0.0127  0.0218  0.0044  0.0014  0.0265  0.0380  0.0040  0.0088  0.0054 </r>
        <r>  0.0098  0.0253  0.0158  0.0018  0.0102  0.0158  0.0009  0.0346  0.0023 </r>
        <r>  0.0001  0.0333  0.0036  0.0131  0.0233  0.0325  0.0009  0.0033  0.0148 </r>
       </set>
       <set comment="band 21">
        <r>  0.0093  0.0005  0.0051  0.0043  0.0368  0.0101  0.0191  0.0044  0.0233 </r>
        <r>  0.0007  0.0087  0.0008  0.0015  0.0222  0.0122  0.0232  0.0230  0.0137 </r>
        <r>  0.0248  0.0042  0.0103  0.0015  0.0004  0.0331  0.0223  0.0077  0.0069 </r>
       </set>
       <set comment="band 22">
        <r>  0.0053  0.0031  0.0101  0.0195  0.0086  0.0105  0.0011  0.0362  0.0303 </r>
        <r>  0.0020  0.0073  0.0159  0.0036  0.0123  0.0200  0.0325  0.0598  0.0157 </r>
        <r>  0.0009  0.0010  0.0016  0.0200  0.0314  0.0012  0.0155  0.0067  0.0394 </r>
       </set>
       <set comment="band 23">
        <r>  0.0051  0.0017  0.0003  0.0011  0.0057  0.0085  0.0036  0.0013  0.0025 </r>
        <r>  0.0007  0.0044  0.0130  0.0111  0.0075  0.0088  0.0036  0.0041  0.0315 </r>
        <r>  0.0023  0.0014  0.0144  0.0025  0.0115  0.0232  0.0279  0.0185  0.0179 </r>
       </set>
       <set comment="band 24">
        <r>  0.0066  0.0132  0.0190  0.0006  0.0289  0.0200  0.0162  0.0337  0.0145 </r>
        <r>  0.0080  0.0191  0.0183  0.0088  0.0503  0.0122  0.0112  0.0036  0.0194 </r>
        <r>  0.0122  0.0015  0.0006  0.0053  0.0036  0.0070  0.0098  0.0128  0.0019 </r>
       </set>
       <set comment="band 25">
        <r>  0.0038  0.0049  0.0135  0.0095  0.0377  0.0153  0.0429  0.0250  0.0312 </r>
        <r>  0.0151  0.0018  0.0007  0.0132  0.0013  0.0487  0.0382  0.0012  0.0015 </r>
        <r>  0.0021  0.0076  0.0070  0.0035  0.0488  0.0075  0.0042  0.0393  0.0051 </r>
       </set>
       <set comment="band 26">
        <r>  0.0032  0.0105  0.0003  0.0045  0.0224  0.0060  0.0636  0.0069  0.0006 </r>
        <r>  0.0024  0.0069  0.0029  0.0099  0.0294  0.0056  0.0288  0.0118  0.0113 </r>
        <r>  0.0010  0.0185  0.0080  0.0103  0.0035  0.0100  0.0422  0.0083  0.0001 </r>
       </set>
       <set comment="band 27">
        <r>  0.0232  0.0149  0.0066  0.0060  0.0118  0.0104  0.0087  0.0124  0.0311 </r>
        <r>  0.0036  0.0044  0.0159  0.0001  0.0121  0.1057  0.0127  0.0128  0.0012 </r>
        <r>  0.0121  0.0147  0.0100  0.0025  0.0165  0.1026  0.0034  0.0091  0.0183 </r>
       </set>
       <set comment="band 28">
        <r>  0.0075  0.0099  0.0009  0.0126  0.0119  0.0932  0.0196  0.0023  0.0047 </r>
        <r>  0.0036  0.0013  0.0056  0.0025  0.0293  0.0305  0.0236  0.0167  0.0032 </r>
        <r>  0.0155  0.0176  0.0176  0.0109  0.0009  0.0305  0.0248  0.0126  0.0698 </r>
       </set>
       <set comment="band 29">
        <r>  0.0002  0.0068  0.0021  0.0032  0.0360  0.0606  0.0196  0.0029  0.0044 </r>
        <r>  0.0167  0.0214  0.0130  0.0042  0.0188  0.0110  0.0065  0.0011  0.0554 </r>
        <r>  0.0028  0.0002  0.0091  0.0031  0.0657  0.0461  0.0345  0.0074  0.0009 </r>
       </set>
       <set comment="band 30">
        <r>  0.0040  0.0024  0.0033  0.0052  0.0074  0.0109  0.0468  0.0210  0.0655 </r>
        <r>  0.0003  0.0006  0.0005  0.0005  0.0003  0.0130  0.0178  0.0035  0.0538 </r>
        <r>  0.0004  0.0030  0.0019  0.0013  0.0060  0.0106  0.0015  0.0120  0.0344 </r>
       </set>
       <set comment="band 31">
        <r>  0.0039  0.0022  0.0072  0.0041  0.0071  0.0175  0.0046  0.0135  0.0118 </r>
        <r>  0.0066  0.0011  0.0023  0.0045  0.0266  0.0289  0.0005  0.0422  0.0014 </r>
        <r>  0.0098  0.0031  0.0072  0.0019  0.0196  0.0288  0.0450  0.0588  0.0006 </r>
       </set>
       <set comment="band 32">
        <r>  0.0002  0.0067  0.0010  0.0011  0.0447  0.0241  0.0161  0.0266  0.0019 </r>
        <r>  0.0012  0.0152  0.0012  0.0050  0.0506  0.0134  0.0197  0.0004  0.0035 </r>
        <r>  0.0033  0.0042  0.0002  0.0018  0.0364  0.0071  0.0121  0.0004  0.0427 </r>
       </set>
      </set>
      <set comment="kpoint 37">
       <set comment="band 1">
        <r>  0.1947  0.0010  0.0010  0.0051  0.0001  0.0001  0.0001  0.0003  0.0000 </r>
        <r>  0.2713  0.0026  0.0006  0.0008  0.0002  0.0001  0.0001  0.0003  0.0001 </r>
        <r>  0.1817  0.0044  0.0009  0.0020  0.0000  0.0002  0.0001  0.0002  0.0000 </r>
       </set>
       <set comment="band 2">
        <r>  0.2769  0.0011  0.0027  0.0019  0.0002  0.0002  0.0000  0.0007  0.0000 </r>
        <r>  0.0863  0.0017  0.0072  0.0050  0.0000  0.0005  0.0000  0.0001  0.0001 </r>
        <r>  0.3071  0.0002  0.0024  0.0020  0.0001  0.0004  0.0000  0.0004  0.0001 </r>
       </set>
       <set comment="band 3">
        <r>  0.1927  0.0004  0.0032  0.0063  0.0001  0.0002  0.0000  0.0003  0.0001 </r>
        <r>  0.3115  0.0020  0.0002  0.0011  0.0000  0.0001  0.0000  0.0002  0.0000 </r>
        <r>  0.1756  0.0027  0.0031  0.0056  0.0000  0.0004  0.0000  0.0001  0.0002 </r>
       </set>
       <set comment="band 4">
        <r>  0.0113  0.0533  0.0309  0.0570  0.0001  0.0000  0.0000  0.0010  0.0001 </r>
        <r>  0.0003  0.0335  0.0160  0.0616  0.0002  0.0006  0.0000  0.0008  0.0007 </r>
        <r>  0.0075  0.0123  0.0976  0.0333  0.0000  0.0005  0.0001  0.0006  0.0002 </r>
       </set>
       <set comment="band 5">
        <r>  0.0006  0.0272  0.0876  0.0026  0.0008  0.0002  0.0003  0.0008  0.0001 </r>
        <r>  0.0085  0.0310  0.0778  0.0270  0.0006  0.0007  0.0001  0.0006  0.0000 </r>
        <r>  0.0068  0.1041  0.0268  0.0309  0.0007  0.0003  0.0000  0.0000  0.0002 </r>
       </set>
       <set comment="band 6">
        <r>  0.0018  0.0578  0.0563  0.1091  0.0002  0.0001  0.0000  0.0012  0.0005 </r>
        <r>  0.0166  0.1057  0.0812  0.0186  0.0004  0.0011  0.0002  0.0008  0.0001 </r>
        <r>  0.0063  0.0085  0.0040  0.0068  0.0010  0.0002  0.0003  0.0022  0.0003 </r>
       </set>
       <set comment="band 7">
        <r>  0.0167  0.0056  0.0129  0.0429  0.0006  0.0010  0.0008  0.0028  0.0001 </r>
        <r>  0.0113  0.0315  0.0377  0.0442  0.0007  0.0011  0.0006  0.0001  0.0001 </r>
        <r>  0.0082  0.0536  0.0504  0.1246  0.0002  0.0009  0.0007  0.0014  0.0003 </r>
       </set>
       <set comment="band 8">
        <r>  0.0272  0.0077  0.0387  0.0316  0.0006  0.0020  0.0005  0.0016  0.0002 </r>
        <r>  0.0032  0.0027  0.0107  0.1349  0.0009  0.0005  0.0004  0.0019  0.0003 </r>
        <r>  0.0131  0.0264  0.0741  0.1008  0.0001  0.0009  0.0003  0.0006  0.0002 </r>
       </set>
       <set comment="band 9">
        <r>  0.0016  0.2441  0.0595  0.0020  0.0005  0.0000  0.0001  0.0001  0.0001 </r>
        <r>  0.0125  0.1012  0.0421  0.0097  0.0012  0.0014  0.0002  0.0010  0.0012 </r>
        <r>  0.0229  0.0332  0.0056  0.0011  0.0002  0.0070  0.0011  0.0003  0.0009 </r>
       </set>
       <set comment="band 10">
        <r>  0.0128  0.0154  0.0025  0.0049  0.0036  0.0062  0.0014  0.0003  0.0018 </r>
        <r>  0.0203  0.0899  0.0661  0.0080  0.0001  0.0085  0.0022  0.0005  0.0012 </r>
        <r>  0.0070  0.1897  0.0712  0.0030  0.0005  0.0028  0.0010  0.0000  0.0004 </r>
       </set>
       <set comment="band 11">
        <r>  0.0027  0.0105  0.1004  0.1146  0.0005  0.0024  0.0010  0.0007  0.0002 </r>
        <r>  0.0062  0.0221  0.0846  0.0661  0.0017  0.0016  0.0033  0.0051  0.0015 </r>
        <r>  0.0004  0.0094  0.0751  0.0452  0.0043  0.0003  0.0023  0.0017  0.0037 </r>
       </set>
       <set comment="band 12">
        <r>  0.0039  0.0201  0.1072  0.0968  0.0008  0.0010  0.0024  0.0041  0.0006 </r>
        <r>  0.0001  0.0363  0.0589  0.0790  0.0006  0.0015  0.0016  0.0031  0.0003 </r>
        <r>  0.0060  0.0344  0.0828  0.0979  0.0001  0.0015  0.0005  0.0040  0.0000 </r>
       </set>
       <set comment="band 13">
        <r>  0.0012  0.0300  0.0068  0.0156  0.0154  0.0050  0.0109  0.0062  0.0087 </r>
        <r>  0.0002  0.0152  0.0174  0.0179  0.0123  0.0047  0.0109  0.0016  0.0016 </r>
        <r>  0.0021  0.0018  0.0046  0.0168  0.0154  0.0017  0.0080  0.0057  0.0044 </r>
       </set>
       <set comment="band 14">
        <r>  0.0039  0.0069  0.0016  0.0151  0.0012  0.0089  0.0010  0.0069  0.0178 </r>
        <r>  0.0003  0.0025  0.0139  0.0263  0.0074  0.0082  0.0001  0.0170  0.0242 </r>
        <r>  0.0014  0.0034  0.0017  0.0406  0.0070  0.0180  0.0044  0.0054  0.0168 </r>
       </set>
       <set comment="band 15">
        <r>  0.0010  0.0006  0.0024  0.0052  0.0031  0.0062  0.0399  0.0175  0.0133 </r>
        <r>  0.0021  0.0023  0.0047  0.0007  0.0155  0.0152  0.0343  0.0023  0.0057 </r>
        <r>  0.0008  0.0037  0.0223  0.0077  0.0129  0.0016  0.0378  0.0019  0.0088 </r>
       </set>
       <set comment="band 16">
        <r>  0.0086  0.0159  0.0006  0.0056  0.0443  0.0005  0.0020  0.0178  0.0008 </r>
        <r>  0.0213  0.0185  0.0007  0.0180  0.0209  0.0039  0.0061  0.0076  0.0118 </r>
        <r>  0.0151  0.0155  0.0031  0.0128  0.0159  0.0108  0.0034  0.0226  0.0055 </r>
       </set>
       <set comment="band 17">
        <r>  0.0131  0.0161  0.0012  0.0152  0.0005  0.0405  0.0001  0.0041  0.0032 </r>
        <r>  0.0005  0.0093  0.0008  0.0155  0.0008  0.0155  0.0112  0.0560  0.0116 </r>
        <r>  0.0080  0.0195  0.0002  0.0020  0.0003  0.0179  0.0048  0.0418  0.0070 </r>
       </set>
       <set comment="band 18">
        <r>  0.0006  0.0087  0.0070  0.0134  0.0225  0.0086  0.0432  0.0223  0.0133 </r>
        <r>  0.0043  0.0204  0.0060  0.0039  0.0096  0.0053  0.0199  0.0105  0.0080 </r>
        <r>  0.0104  0.0206  0.0001  0.0055  0.0537  0.0097  0.0236  0.0107  0.0188 </r>
       </set>
       <set comment="band 19">
        <r>  0.0231  0.0341  0.0029  0.0115  0.0087  0.0050  0.0128  0.0186  0.0104 </r>
        <r>  0.0011  0.0055  0.0068  0.0046  0.0055  0.0360  0.0012  0.0209  0.0053 </r>
        <r>  0.0073  0.0112  0.0030  0.0046  0.0052  0.0080  0.0421  0.0266  0.0456 </r>
       </set>
       <set comment="band 20">
        <r>  0.0016  0.0090  0.0134  0.0035  0.0006  0.0641  0.0076  0.0185  0.0029 </r>
        <r>  0.0107  0.0222  0.0014  0.0047  0.0485  0.0047  0.0208  0.0043  0.0367 </r>
        <r>  0.0164  0.0117  0.0017  0.0002  0.0096  0.0297  0.0075  0.0174  0.0002 </r>
       </set>
       <set comment="band 21">
        <r>  0.0060  0.0006  0.0099  0.0013  0.0068  0.0045  0.0005  0.0032  0.1038 </r>
        <r>  0.0113  0.0066  0.0168  0.0000  0.0070  0.0074  0.0352  0.0002  0.0300 </r>
        <r>  0.0021  0.0007  0.0082  0.0066  0.0063  0.0020  0.0154  0.0054  0.0431 </r>
       </set>
       <set comment="band 22">
        <r>  0.0123  0.0002  0.0041  0.0049  0.0425  0.0059  0.0416  0.0020  0.0132 </r>
        <r>  0.0056  0.0117  0.0019  0.0016  0.0283  0.0430  0.0117  0.0034  0.0130 </r>
        <r>  0.0085  0.0028  0.0049  0.0010  0.0166  0.0153  0.0372  0.0042  0.0035 </r>
       </set>
       <set comment="band 23">
        <r>  0.0073  0.0055  0.0025  0.0124  0.0045  0.0133  0.0465  0.0015  0.0530 </r>
        <r>  0.0059  0.0063  0.0032  0.0098  0.0004  0.0086  0.0313  0.0019  0.0528 </r>
        <r>  0.0006  0.0014  0.0044  0.0192  0.0176  0.0091  0.0025  0.0060  0.0272 </r>
       </set>
       <set comment="band 24">
        <r>  0.0072  0.0174  0.0201  0.0022  0.0120  0.0362  0.0107  0.0298  0.0010 </r>
        <r>  0.0015  0.0150  0.0074  0.0159  0.0285  0.0303  0.0135  0.0096  0.0358 </r>
        <r>  0.0062  0.0188  0.0176  0.0022  0.0044  0.0837  0.0059  0.0162  0.0027 </r>
       </set>
       <set comment="band 25">
        <r>  0.0021  0.0046  0.0007  0.0197  0.0060  0.0194  0.0297  0.0067  0.0491 </r>
        <r>  0.0045  0.0024  0.0129  0.0096  0.0059  0.0154  0.0581  0.0001  0.0344 </r>
        <r>  0.0001  0.0054  0.0092  0.0164  0.0186  0.0176  0.0283  0.0123  0.0993 </r>
       </set>
       <set comment="band 26">
        <r>  0.0009  0.0045  0.0007  0.0073  0.0131  0.0212  0.0168  0.0233  0.0245 </r>
        <r>  0.0058  0.0041  0.0125  0.0028  0.0090  0.0415  0.0086  0.0226  0.0335 </r>
        <r>  0.0076  0.0045  0.0155  0.0008  0.0116  0.0446  0.0124  0.0217  0.0090 </r>
       </set>
       <set comment="band 27">
        <r>  0.0002  0.0037  0.0186  0.0030  0.0150  0.0068  0.0187  0.0506  0.0049 </r>
        <r>  0.0035  0.0057  0.0038  0.0194  0.0365  0.0177  0.0013  0.0106  0.0035 </r>
        <r>  0.0085  0.0090  0.0185  0.0173  0.0122  0.0130  0.0015  0.0105  0.0023 </r>
       </set>
       <set comment="band 28">
        <r>  0.0006  0.0014  0.0036  0.0024  0.0228  0.0110  0.0093  0.0025  0.0075 </r>
        <r>  0.0051  0.0025  0.0065  0.0111  0.0005  0.0203  0.0146  0.0222  0.0112 </r>
        <r>  0.0014  0.0088  0.0019  0.0014  0.0402  0.0073  0.0575  0.0085  0.0218 </r>
       </set>
       <set comment="band 29">
        <r>  0.0045  0.0024  0.0220  0.0032  0.0280  0.0323  0.0209  0.0502  0.0059 </r>
        <r>  0.0027  0.0016  0.0056  0.0006  0.0023  0.0039  0.0477  0.0589  0.0037 </r>
        <r>  0.0013  0.0011  0.0006  0.0052  0.0360  0.0054  0.0536  0.0164  0.0318 </r>
       </set>
       <set comment="band 30">
        <r>  0.0015  0.0038  0.0064  0.0027  0.0292  0.0061  0.0181  0.0180  0.0020 </r>
        <r>  0.0001  0.0016  0.0027  0.0096  0.0216  0.0206  0.0025  0.0404  0.0055 </r>
        <r>  0.0004  0.0001  0.0025  0.0087  0.0008  0.0015  0.0022  0.0055  0.0103 </r>
       </set>
       <set comment="band 31">
        <r>  0.0027  0.0122  0.0066  0.0101  0.1119  0.0090  0.0001  0.0722  0.0004 </r>
        <r>  0.0047  0.0114  0.0175  0.0042  0.0805  0.0246  0.0131  0.0287  0.0119 </r>
        <r>  0.0014  0.0052  0.0166  0.0110  0.0514  0.0111  0.0204  0.1094  0.0064 </r>
       </set>
       <set comment="band 32">
        <r>  0.0032  0.0073  0.0135  0.0304  0.0086  0.0189  0.0193  0.0190  0.0187 </r>
        <r>  0.0084  0.0040  0.0096  0.0063  0.0111  0.0095  0.0055  0.1143  0.0654 </r>
        <r>  0.0016  0.0048  0.0091  0.0415  0.0061  0.0386  0.0005  0.0174  0.0005 </r>
       </set>
      </set>
      <set comment="kpoint 38">
       <set comment="band 1">
        <r>  0.2710  0.0011  0.0009  0.0029  0.0000  0.0003  0.0001  0.0001  0.0002 </r>
        <r>  0.1787  0.0062  0.0010  0.0009  0.0000  0.0002  0.0001  0.0002  0.0000 </r>
        <r>  0.1975  0.0055  0.0010  0.0010  0.0001  0.0002  0.0001  0.0001  0.0000 </r>
       </set>
       <set comment="band 2">
        <r>  0.1094  0.0049  0.0062  0.0007  0.0001  0.0002  0.0000  0.0005  0.0001 </r>
        <r>  0.2979  0.0008  0.0022  0.0008  0.0000  0.0007  0.0000  0.0001  0.0002 </r>
        <r>  0.2576  0.0012  0.0026  0.0007  0.0000  0.0007  0.0000  0.0001  0.0002 </r>
       </set>
       <set comment="band 3">
        <r>  0.2910  0.0003  0.0001  0.0014  0.0000  0.0003  0.0000  0.0000  0.0001 </r>
        <r>  0.1926  0.0054  0.0027  0.0019  0.0000  0.0007  0.0000  0.0001  0.0002 </r>
        <r>  0.2156  0.0066  0.0028  0.0006  0.0000  0.0005  0.0000  0.0001  0.0001 </r>
       </set>
       <set comment="band 4">
        <r>  0.0026  0.0919  0.0172  0.0066  0.0001  0.0005  0.0002  0.0000  0.0001 </r>
        <r>  0.0052  0.0802  0.0557  0.0008  0.0000  0.0003  0.0001  0.0001  0.0001 </r>
        <r>  0.0057  0.0705  0.0579  0.0013  0.0001  0.0004  0.0002  0.0000  0.0002 </r>
       </set>
       <set comment="band 5">
        <r>  0.0036  0.0257  0.0975  0.0220  0.0004  0.0002  0.0000  0.0020  0.0003 </r>
        <r>  0.0002  0.0462  0.0701  0.0099  0.0002  0.0001  0.0001  0.0002  0.0006 </r>
        <r>  0.0016  0.0420  0.0690  0.0543  0.0003  0.0001  0.0000  0.0006  0.0006 </r>
       </set>
       <set comment="band 6">
        <r>  0.0147  0.0004  0.0448  0.1515  0.0002  0.0004  0.0003  0.0014  0.0001 </r>
        <r>  0.0021  0.0159  0.0409  0.1590  0.0004  0.0006  0.0001  0.0007  0.0001 </r>
        <r>  0.0071  0.0005  0.0033  0.0315  0.0000  0.0014  0.0002  0.0007  0.0007 </r>
       </set>
       <set comment="band 7">
        <r>  0.0128  0.0049  0.0454  0.0388  0.0001  0.0000  0.0003  0.0009  0.0014 </r>
        <r>  0.0191  0.0018  0.0005  0.0118  0.0001  0.0008  0.0005  0.0038  0.0009 </r>
        <r>  0.0015  0.0652  0.0665  0.1654  0.0001  0.0005  0.0002  0.0003  0.0007 </r>
       </set>
       <set comment="band 8">
        <r>  0.0001  0.1610  0.0223  0.0044  0.0000  0.0027  0.0006  0.0005  0.0013 </r>
        <r>  0.0236  0.0248  0.0779  0.0416  0.0000  0.0052  0.0009  0.0002  0.0002 </r>
        <r>  0.0157  0.0466  0.0581  0.0077  0.0000  0.0043  0.0008  0.0012  0.0005 </r>
       </set>
       <set comment="band 9">
        <r>  0.0125  0.0256  0.0365  0.0906  0.0005  0.0004  0.0001  0.0017  0.0020 </r>
        <r>  0.0009  0.1006  0.0401  0.1517  0.0000  0.0002  0.0004  0.0000  0.0007 </r>
        <r>  0.0228  0.0255  0.0011  0.0231  0.0007  0.0013  0.0011  0.0047  0.0003 </r>
       </set>
       <set comment="band 10">
        <r>  0.0241  0.0055  0.0842  0.0803  0.0011  0.0006  0.0015  0.0073  0.0005 </r>
        <r>  0.0126  0.0061  0.0086  0.0077  0.0004  0.0010  0.0014  0.0049  0.0062 </r>
        <r>  0.0104  0.0447  0.0587  0.1515  0.0003  0.0002  0.0008  0.0022  0.0009 </r>
       </set>
       <set comment="band 11">
        <r>  0.0075  0.1055  0.0132  0.0006  0.0003  0.0058  0.0020  0.0019  0.0009 </r>
        <r>  0.0136  0.1133  0.0797  0.0119  0.0001  0.0051  0.0007  0.0004  0.0003 </r>
        <r>  0.0057  0.0549  0.1445  0.0126  0.0001  0.0054  0.0017  0.0005  0.0041 </r>
       </set>
       <set comment="band 12">
        <r>  0.0037  0.0036  0.1012  0.0612  0.0004  0.0047  0.0032  0.0025  0.0058 </r>
        <r>  0.0019  0.0443  0.1043  0.0475  0.0004  0.0023  0.0018  0.0016  0.0016 </r>
        <r>  0.0094  0.0734  0.0180  0.0317  0.0001  0.0029  0.0025  0.0021  0.0066 </r>
       </set>
       <set comment="band 13">
        <r>  0.0004  0.0067  0.0210  0.0303  0.0008  0.0059  0.0090  0.0007  0.0141 </r>
        <r>  0.0012  0.0047  0.0154  0.0583  0.0002  0.0077  0.0106  0.0022  0.0216 </r>
        <r>  0.0011  0.0117  0.0090  0.0161  0.0005  0.0037  0.0067  0.0030  0.0169 </r>
       </set>
       <set comment="band 14">
        <r>  0.0008  0.0007  0.0173  0.0073  0.0043  0.0108  0.0030  0.0090  0.0178 </r>
        <r>  0.0001  0.0367  0.0017  0.0023  0.0191  0.0004  0.0123  0.0169  0.0098 </r>
        <r>  0.0028  0.0359  0.0035  0.0004  0.0128  0.0011  0.0213  0.0078  0.0073 </r>
       </set>
       <set comment="band 15">
        <r>  0.0020  0.0645  0.0052  0.0024  0.0167  0.0020  0.0342  0.0247  0.0028 </r>
        <r>  0.0041  0.0014  0.0056  0.0014  0.0058  0.0132  0.0011  0.0109  0.0071 </r>
        <r>  0.0015  0.0026  0.0065  0.0014  0.0106  0.0170  0.0030  0.0153  0.0202 </r>
       </set>
       <set comment="band 16">
        <r>  0.0053  0.0159  0.0014  0.0114  0.0160  0.0144  0.0264  0.0011  0.0113 </r>
        <r>  0.0042  0.0172  0.0078  0.0147  0.0011  0.0008  0.0474  0.0018  0.0170 </r>
        <r>  0.0053  0.0216  0.0047  0.0025  0.0213  0.0060  0.0072  0.0365  0.0048 </r>
       </set>
       <set comment="band 17">
        <r>  0.0013  0.0047  0.0046  0.0011  0.0343  0.0055  0.0119  0.0229  0.0011 </r>
        <r>  0.0108  0.0167  0.0013  0.0002  0.0338  0.0034  0.0084  0.0208  0.0007 </r>
        <r>  0.0019  0.0039  0.0074  0.0139  0.0132  0.0052  0.0535  0.0091  0.0049 </r>
       </set>
       <set comment="band 18">
        <r>  0.0071  0.0024  0.0060  0.0010  0.0072  0.0053  0.0048  0.0344  0.0144 </r>
        <r>  0.0113  0.0140  0.0013  0.0092  0.0067  0.0039  0.0166  0.0281  0.0200 </r>
        <r>  0.0088  0.0298  0.0135  0.0004  0.0169  0.0023  0.0119  0.0423  0.0093 </r>
       </set>
       <set comment="band 19">
        <r>  0.0015  0.0162  0.0040  0.0075  0.0356  0.0149  0.0166  0.0101  0.0101 </r>
        <r>  0.0014  0.0240  0.0046  0.0042  0.0796  0.0219  0.0244  0.0136  0.0028 </r>
        <r>  0.0052  0.0030  0.0013  0.0009  0.0154  0.0027  0.0015  0.0011  0.0062 </r>
       </set>
       <set comment="band 20">
        <r>  0.0034  0.0260  0.0170  0.0173  0.0100  0.0212  0.0002  0.0255  0.0019 </r>
        <r>  0.0124  0.0059  0.0013  0.0054  0.0067  0.0045  0.0049  0.0730  0.0063 </r>
        <r>  0.0007  0.0003  0.0113  0.0416  0.0275  0.0079  0.0476  0.0102  0.0005 </r>
       </set>
       <set comment="band 21">
        <r>  0.0050  0.0081  0.0031  0.0239  0.0226  0.0005  0.0101  0.0037  0.0037 </r>
        <r>  0.0002  0.0003  0.0034  0.0008  0.0469  0.0125  0.0439  0.0298  0.0077 </r>
        <r>  0.0003  0.0436  0.0012  0.0070  0.0874  0.0445  0.0028  0.0035  0.0025 </r>
       </set>
       <set comment="band 22">
        <r>  0.0009  0.0271  0.0101  0.0010  0.0528  0.0200  0.0451  0.0004  0.0239 </r>
        <r>  0.0001  0.0213  0.0201  0.0015  0.0111  0.0514  0.0191  0.0064  0.0035 </r>
        <r>  0.0126  0.0007  0.0084  0.0009  0.0290  0.0025  0.0165  0.0091  0.0178 </r>
       </set>
       <set comment="band 23">
        <r>  0.0136  0.0043  0.0192  0.0005  0.0535  0.0390  0.0051  0.0030  0.0101 </r>
        <r>  0.0067  0.0213  0.0020  0.0065  0.0350  0.0000  0.0004  0.0002  0.0075 </r>
        <r>  0.0003  0.0272  0.0185  0.0027  0.0067  0.0080  0.0132  0.0085  0.0178 </r>
       </set>
       <set comment="band 24">
        <r>  0.0092  0.0079  0.0061  0.0064  0.0155  0.0396  0.0111  0.0635  0.0107 </r>
        <r>  0.0090  0.0116  0.0262  0.0224  0.0093  0.0004  0.0144  0.0010  0.0022 </r>
        <r>  0.0292  0.0065  0.0016  0.0026  0.0109  0.0401  0.0115  0.0547  0.0102 </r>
       </set>
       <set comment="band 25">
        <r>  0.0266  0.0013  0.0051  0.0054  0.0114  0.0208  0.0062  0.0029  0.0531 </r>
        <r>  0.0111  0.0088  0.0204  0.0007  0.0189  0.0482  0.0081  0.0091  0.0327 </r>
        <r>  0.0053  0.0035  0.0125  0.0009  0.0463  0.0734  0.0172  0.0012  0.0165 </r>
       </set>
       <set comment="band 26">
        <r>  0.0035  0.0070  0.0100  0.0006  0.0149  0.0313  0.0212  0.0166  0.0263 </r>
        <r>  0.0009  0.0002  0.0115  0.0103  0.0064  0.1075  0.0240  0.0046  0.0319 </r>
        <r>  0.0133  0.0055  0.0116  0.0009  0.0002  0.0225  0.0075  0.0204  0.0539 </r>
       </set>
       <set comment="band 27">
        <r>  0.0046  0.0110  0.0054  0.0070  0.0006  0.0117  0.0720  0.0037  0.0087 </r>
        <r>  0.0231  0.0101  0.0090  0.0031  0.0081  0.0357  0.0068  0.0029  0.0412 </r>
        <r>  0.0047  0.0059  0.0106  0.0093  0.0002  0.0503  0.0229  0.0097  0.0164 </r>
       </set>
       <set comment="band 28">
        <r>  0.0034  0.0067  0.0062  0.0056  0.0137  0.0204  0.0187  0.0028  0.0065 </r>
        <r>  0.0034  0.0023  0.0003  0.0021  0.0314  0.0006  0.0100  0.0024  0.0210 </r>
        <r>  0.0010  0.0023  0.0039  0.0004  0.0230  0.0190  0.0189  0.0026  0.0249 </r>
       </set>
       <set comment="band 29">
        <r>  0.0009  0.0112  0.0014  0.0006  0.0461  0.0022  0.0329  0.0146  0.0356 </r>
        <r>  0.0054  0.0003  0.0030  0.0075  0.0085  0.0177  0.0371  0.0348  0.0304 </r>
        <r>  0.0029  0.0060  0.0013  0.0069  0.0092  0.0029  0.0062  0.0184  0.0017 </r>
       </set>
       <set comment="band 30">
        <r>  0.0063  0.0031  0.0032  0.0116  0.0148  0.0631  0.0049  0.0203  0.0200 </r>
        <r>  0.0025  0.0138  0.0032  0.0060  0.0320  0.0012  0.0029  0.0167  0.0015 </r>
        <r>  0.0089  0.0039  0.0142  0.0165  0.0037  0.0179  0.0111  0.0228  0.0202 </r>
       </set>
       <set comment="band 31">
        <r>  0.0032  0.0002  0.0014  0.0016  0.0162  0.0251  0.0072  0.0147  0.0282 </r>
        <r>  0.0010  0.0017  0.0094  0.0012  0.0082  0.0076  0.0617  0.0018  0.0206 </r>
        <r>  0.0006  0.0050  0.0059  0.0044  0.0042  0.0239  0.0830  0.0051  0.0413 </r>
       </set>
       <set comment="band 32">
        <r>  0.0046  0.0019  0.0004  0.0131  0.0214  0.0040  0.0106  0.0137  0.0191 </r>
        <r>  0.0036  0.0007  0.0030  0.0096  0.0532  0.0036  0.0081  0.0209  0.0267 </r>
        <r>  0.0012  0.0034  0.0008  0.0099  0.0882  0.0058  0.0113  0.0120  0.0276 </r>
       </set>
      </set>
      <set comment="kpoint 39">
       <set comment="band 1">
        <r>  0.2291  0.0014  0.0011  0.0038  0.0000  0.0001  0.0001  0.0002  0.0001 </r>
        <r>  0.2355  0.0041  0.0007  0.0009  0.0001  0.0002  0.0001  0.0002  0.0000 </r>
        <r>  0.1807  0.0055  0.0009  0.0013  0.0001  0.0002  0.0001  0.0002  0.0000 </r>
       </set>
       <set comment="band 2">
        <r>  0.1944  0.0023  0.0047  0.0016  0.0001  0.0002  0.0000  0.0006  0.0001 </r>
        <r>  0.1742  0.0010  0.0049  0.0025  0.0000  0.0006  0.0000  0.0001  0.0002 </r>
        <r>  0.3033  0.0001  0.0029  0.0014  0.0001  0.0006  0.0000  0.0003  0.0001 </r>
       </set>
       <set comment="band 3">
        <r>  0.2446  0.0002  0.0012  0.0041  0.0000  0.0003  0.0000  0.0000  0.0001 </r>
        <r>  0.2616  0.0045  0.0015  0.0014  0.0000  0.0002  0.0000  0.0002  0.0000 </r>
        <r>  0.1834  0.0037  0.0021  0.0044  0.0000  0.0006  0.0000  0.0000  0.0002 </r>
       </set>
       <set comment="band 4">
        <r>  0.0038  0.0827  0.0173  0.0181  0.0002  0.0001  0.0002  0.0000  0.0000 </r>
        <r>  0.0027  0.0705  0.0557  0.0054  0.0003  0.0006  0.0001  0.0000  0.0004 </r>
        <r>  0.0003  0.0783  0.0653  0.0016  0.0002  0.0003  0.0001  0.0001  0.0002 </r>
       </set>
       <set comment="band 5">
        <r>  0.0022  0.0319  0.1043  0.0140  0.0008  0.0003  0.0000  0.0029  0.0002 </r>
        <r>  0.0010  0.0140  0.0384  0.0804  0.0004  0.0001  0.0000  0.0015  0.0007 </r>
        <r>  0.0094  0.0525  0.0768  0.0203  0.0006  0.0000  0.0000  0.0005  0.0002 </r>
       </set>
       <set comment="band 6">
        <r>  0.0117  0.0142  0.0456  0.1222  0.0001  0.0005  0.0001  0.0001  0.0006 </r>
        <r>  0.0148  0.0427  0.0606  0.0113  0.0002  0.0013  0.0001  0.0002  0.0003 </r>
        <r>  0.0039  0.0104  0.0069  0.0990  0.0005  0.0004  0.0001  0.0014  0.0007 </r>
       </set>
       <set comment="band 7">
        <r>  0.0157  0.0014  0.0349  0.0555  0.0001  0.0005  0.0009  0.0021  0.0002 </r>
        <r>  0.0031  0.0608  0.0488  0.1071  0.0001  0.0014  0.0007  0.0000  0.0001 </r>
        <r>  0.0148  0.0093  0.0205  0.0630  0.0001  0.0014  0.0009  0.0027  0.0002 </r>
       </set>
       <set comment="band 8">
        <r>  0.0163  0.0487  0.0164  0.0493  0.0004  0.0015  0.0003  0.0023  0.0011 </r>
        <r>  0.0124  0.0007  0.0208  0.0796  0.0006  0.0004  0.0002  0.0039  0.0005 </r>
        <r>  0.0147  0.0209  0.0932  0.1352  0.0001  0.0002  0.0001  0.0008  0.0001 </r>
       </set>
       <set comment="band 9">
        <r>  0.0029  0.1795  0.0588  0.0133  0.0003  0.0011  0.0002  0.0001  0.0001 </r>
        <r>  0.0170  0.0880  0.0356  0.0175  0.0008  0.0037  0.0009  0.0002  0.0005 </r>
        <r>  0.0143  0.0820  0.0090  0.0048  0.0000  0.0066  0.0013  0.0002  0.0008 </r>
       </set>
       <set comment="band 10">
        <r>  0.0214  0.0232  0.0469  0.0244  0.0021  0.0045  0.0013  0.0004  0.0003 </r>
        <r>  0.0248  0.1054  0.0567  0.0260  0.0003  0.0039  0.0019  0.0001  0.0009 </r>
        <r>  0.0103  0.1471  0.0513  0.0066  0.0000  0.0038  0.0012  0.0003  0.0013 </r>
       </set>
       <set comment="band 11">
        <r>  0.0044  0.0385  0.0512  0.0917  0.0003  0.0038  0.0004  0.0033  0.0030 </r>
        <r>  0.0002  0.0215  0.1245  0.0701  0.0001  0.0037  0.0005  0.0050  0.0018 </r>
        <r>  0.0075  0.0201  0.0737  0.0367  0.0010  0.0008  0.0001  0.0023  0.0042 </r>
       </set>
       <set comment="band 12">
        <r>  0.0014  0.0178  0.1126  0.0853  0.0006  0.0025  0.0033  0.0030  0.0028 </r>
        <r>  0.0012  0.0401  0.0387  0.0892  0.0002  0.0016  0.0026  0.0011  0.0043 </r>
        <r>  0.0021  0.0326  0.0888  0.0813  0.0005  0.0010  0.0004  0.0023  0.0004 </r>
       </set>
       <set comment="band 13">
        <r>  0.0025  0.0072  0.0031  0.0137  0.0060  0.0082  0.0029  0.0021  0.0252 </r>
        <r>  0.0008  0.0059  0.0092  0.0065  0.0068  0.0048  0.0108  0.0015  0.0156 </r>
        <r>  0.0022  0.0072  0.0055  0.0444  0.0045  0.0118  0.0126  0.0035  0.0116 </r>
       </set>
       <set comment="band 14">
        <r>  0.0000  0.0153  0.0049  0.0035  0.0075  0.0015  0.0203  0.0099  0.0018 </r>
        <r>  0.0032  0.0114  0.0031  0.0019  0.0117  0.0052  0.0087  0.0081  0.0107 </r>
        <r>  0.0024  0.0071  0.0037  0.0164  0.0182  0.0009  0.0083  0.0051  0.0195 </r>
       </set>
       <set comment="band 15">
        <r>  0.0025  0.0170  0.0091  0.0024  0.0259  0.0013  0.0314  0.0153  0.0034 </r>
        <r>  0.0023  0.0128  0.0003  0.0111  0.0122  0.0120  0.0260  0.0056  0.0084 </r>
        <r>  0.0000  0.0026  0.0112  0.0070  0.0051  0.0057  0.0169  0.0195  0.0021 </r>
       </set>
       <set comment="band 16">
        <r>  0.0014  0.0321  0.0049  0.0089  0.0073  0.0193  0.0041  0.0146  0.0106 </r>
        <r>  0.0104  0.0180  0.0109  0.0033  0.0175  0.0015  0.0039  0.0193  0.0253 </r>
        <r>  0.0008  0.0300  0.0084  0.0046  0.0174  0.0013  0.0235  0.0083  0.0038 </r>
       </set>
       <set comment="band 17">
        <r>  0.0137  0.0017  0.0062  0.0223  0.0172  0.0086  0.0029  0.0138  0.0104 </r>
        <r>  0.0003  0.0113  0.0180  0.0090  0.0066  0.0047  0.0100  0.0776  0.0002 </r>
        <r>  0.0227  0.0091  0.0050  0.0049  0.0153  0.0188  0.0013  0.0161  0.0249 </r>
       </set>
       <set comment="band 18">
        <r>  0.0012  0.0014  0.0052  0.0071  0.0295  0.0008  0.0287  0.0446  0.0020 </r>
        <r>  0.0065  0.0091  0.0093  0.0055  0.0257  0.0056  0.0293  0.0110  0.0015 </r>
        <r>  0.0202  0.0057  0.0006  0.0008  0.0356  0.0027  0.0244  0.0282  0.0009 </r>
       </set>
       <set comment="band 19">
        <r>  0.0197  0.0117  0.0002  0.0024  0.0032  0.0360  0.0045  0.0024  0.0119 </r>
        <r>  0.0140  0.0058  0.0016  0.0058  0.0195  0.0300  0.0348  0.0058  0.0058 </r>
        <r>  0.0003  0.0004  0.0008  0.0034  0.0027  0.0245  0.0007  0.0692  0.0257 </r>
       </set>
       <set comment="band 20">
        <r>  0.0045  0.0151  0.0001  0.0029  0.0132  0.0277  0.0142  0.0199  0.0223 </r>
        <r>  0.0037  0.0055  0.0005  0.0018  0.0085  0.0339  0.0030  0.0017  0.0045 </r>
        <r>  0.0060  0.0288  0.0029  0.0027  0.0380  0.0010  0.0635  0.0097  0.0146 </r>
       </set>
       <set comment="band 21">
        <r>  0.0049  0.0333  0.0307  0.0010  0.0004  0.0190  0.0093  0.0023  0.0043 </r>
        <r>  0.0094  0.0223  0.0042  0.0023  0.0093  0.0084  0.0034  0.0036  0.0367 </r>
        <r>  0.0015  0.0150  0.0030  0.0004  0.0236  0.0405  0.0098  0.0043  0.0141 </r>
       </set>
       <set comment="band 22">
        <r>  0.0059  0.0039  0.0026  0.0013  0.0521  0.0051  0.0492  0.0113  0.0248 </r>
        <r>  0.0042  0.0176  0.0040  0.0005  0.0680  0.0316  0.0281  0.0019  0.0146 </r>
        <r>  0.0007  0.0078  0.0031  0.0013  0.0110  0.0015  0.0130  0.0010  0.0030 </r>
       </set>
       <set comment="band 23">
        <r>  0.0153  0.0142  0.0045  0.0022  0.0279  0.0519  0.0038  0.0107  0.0592 </r>
        <r>  0.0002  0.0411  0.0123  0.0053  0.0171  0.0009  0.0043  0.0073  0.0004 </r>
        <r>  0.0092  0.0211  0.0225  0.0003  0.0088  0.0355  0.0095  0.0023  0.0145 </r>
       </set>
       <set comment="band 24">
        <r>  0.0031  0.0075  0.0058  0.0054  0.0070  0.0253  0.0116  0.0057  0.0068 </r>
        <r>  0.0154  0.0038  0.0105  0.0004  0.0171  0.0660  0.0024  0.0086  0.0804 </r>
        <r>  0.0120  0.0073  0.0112  0.0013  0.0119  0.0904  0.0044  0.0186  0.0292 </r>
       </set>
       <set comment="band 25">
        <r>  0.0013  0.0107  0.0191  0.0040  0.0012  0.0099  0.0315  0.0205  0.0344 </r>
        <r>  0.0085  0.0045  0.0083  0.0179  0.0081  0.0209  0.0644  0.0142  0.0109 </r>
        <r>  0.0029  0.0174  0.0363  0.0073  0.0264  0.0108  0.0324  0.0056  0.0375 </r>
       </set>
       <set comment="band 26">
        <r>  0.0040  0.0036  0.0051  0.0216  0.0520  0.0392  0.0186  0.0173  0.0186 </r>
        <r>  0.0060  0.0005  0.0178  0.0075  0.0005  0.0149  0.0279  0.0265  0.0017 </r>
        <r>  0.0067  0.0031  0.0014  0.0257  0.0057  0.0178  0.0059  0.0385  0.0205 </r>
       </set>
       <set comment="band 27">
        <r>  0.0011  0.0002  0.0055  0.0064  0.0028  0.0032  0.0397  0.0445  0.0133 </r>
        <r>  0.0035  0.0061  0.0029  0.0332  0.0281  0.0675  0.0030  0.0037  0.0188 </r>
        <r>  0.0049  0.0060  0.0049  0.0143  0.0339  0.0182  0.0229  0.0030  0.0119 </r>
       </set>
       <set comment="band 28">
        <r>  0.0008  0.0080  0.0069  0.0347  0.0463  0.0168  0.0324  0.0019  0.0310 </r>
        <r>  0.0004  0.0049  0.0096  0.0016  0.0577  0.0058  0.0327  0.0065  0.0004 </r>
        <r>  0.0027  0.0014  0.0033  0.0249  0.0541  0.0217  0.0101  0.0044  0.0393 </r>
       </set>
       <set comment="band 29">
        <r>  0.0062  0.0007  0.0021  0.0063  0.0244  0.0097  0.0147  0.0273  0.0310 </r>
        <r>  0.0009  0.0003  0.0047  0.0219  0.0303  0.0057  0.0039  0.0400  0.0983 </r>
        <r>  0.0002  0.0028  0.0047  0.0211  0.0160  0.0253  0.0184  0.0199  0.0298 </r>
       </set>
       <set comment="band 30">
        <r>  0.0018  0.0031  0.0082  0.0111  0.0418  0.0150  0.0027  0.0288  0.0767 </r>
        <r>  0.0016  0.0027  0.0069  0.0129  0.0111  0.0074  0.0089  0.0429  0.0272 </r>
        <r>  0.0016  0.0040  0.0018  0.0017  0.0233  0.0023  0.0371  0.0041  0.0150 </r>
       </set>
       <set comment="band 31">
        <r>  0.0029  0.0055  0.0074  0.0146  0.0011  0.0346  0.0384  0.0496  0.0017 </r>
        <r>  0.0030  0.0028  0.0060  0.0031  0.0111  0.0158  0.0038  0.0522  0.0115 </r>
        <r>  0.0056  0.0009  0.0025  0.0076  0.0071  0.0040  0.0588  0.0065  0.0608 </r>
       </set>
       <set comment="band 32">
        <r>  0.0085  0.0055  0.0068  0.0078  0.0649  0.0209  0.0136  0.0075  0.0043 </r>
        <r>  0.0010  0.0028  0.0105  0.0185  0.0605  0.0251  0.0919  0.0126  0.0011 </r>
        <r>  0.0012  0.0052  0.0186  0.0034  0.0705  0.0160  0.0342  0.0045  0.0274 </r>
       </set>
      </set>
      <set comment="kpoint 40">
       <set comment="band 1">
        <r>  0.2007  0.0007  0.0008  0.0062  0.0000  0.0002  0.0001  0.0002  0.0001 </r>
        <r>  0.2526  0.0033  0.0007  0.0021  0.0001  0.0002  0.0001  0.0002  0.0001 </r>
        <r>  0.2032  0.0054  0.0008  0.0015  0.0001  0.0001  0.0001  0.0003  0.0000 </r>
       </set>
       <set comment="band 2">
        <r>  0.2678  0.0020  0.0027  0.0008  0.0002  0.0001  0.0000  0.0007  0.0000 </r>
        <r>  0.1461  0.0017  0.0046  0.0033  0.0001  0.0005  0.0000  0.0003  0.0001 </r>
        <r>  0.2603  0.0001  0.0027  0.0024  0.0001  0.0005  0.0000  0.0003  0.0001 </r>
       </set>
       <set comment="band 3">
        <r>  0.2004  0.0011  0.0016  0.0053  0.0001  0.0002  0.0000  0.0003  0.0001 </r>
        <r>  0.2725  0.0039  0.0005  0.0004  0.0001  0.0000  0.0000  0.0002  0.0000 </r>
        <r>  0.2061  0.0014  0.0016  0.0057  0.0000  0.0004  0.0000  0.0000  0.0002 </r>
       </set>
       <set comment="band 4">
        <r>  0.0018  0.0398  0.0363  0.0599  0.0000  0.0000  0.0001  0.0008  0.0003 </r>
        <r>  0.0012  0.0186  0.0412  0.0628  0.0002  0.0004  0.0001  0.0002  0.0005 </r>
        <r>  0.0023  0.0550  0.0676  0.0120  0.0002  0.0004  0.0001  0.0005  0.0001 </r>
       </set>
       <set comment="band 5">
        <r>  0.0045  0.0375  0.0884  0.0039  0.0008  0.0003  0.0001  0.0005  0.0000 </r>
        <r>  0.0002  0.0388  0.0469  0.0485  0.0003  0.0011  0.0000  0.0008  0.0003 </r>
        <r>  0.0049  0.0665  0.0516  0.0390  0.0008  0.0004  0.0000  0.0002  0.0001 </r>
       </set>
       <set comment="band 6">
        <r>  0.0060  0.0476  0.0289  0.0795  0.0005  0.0007  0.0001  0.0005  0.0002 </r>
        <r>  0.0138  0.0778  0.0698  0.0135  0.0005  0.0006  0.0001  0.0003  0.0000 </r>
        <r>  0.0076  0.0139  0.0245  0.0495  0.0003  0.0001  0.0001  0.0013  0.0005 </r>
       </set>
       <set comment="band 7">
        <r>  0.0141  0.0176  0.0346  0.0447  0.0004  0.0004  0.0008  0.0045  0.0003 </r>
        <r>  0.0148  0.0582  0.0595  0.0080  0.0001  0.0020  0.0008  0.0009  0.0004 </r>
        <r>  0.0055  0.0172  0.0482  0.1229  0.0004  0.0015  0.0007  0.0021  0.0000 </r>
       </set>
       <set comment="band 8">
        <r>  0.0262  0.0374  0.0518  0.0426  0.0000  0.0021  0.0007  0.0015  0.0001 </r>
        <r>  0.0042  0.0208  0.0007  0.1403  0.0006  0.0011  0.0003  0.0029  0.0002 </r>
        <r>  0.0195  0.0212  0.0613  0.0685  0.0002  0.0012  0.0005  0.0017  0.0001 </r>
       </set>
       <set comment="band 9">
        <r>  0.0019  0.1684  0.0385  0.0199  0.0004  0.0015  0.0003  0.0003  0.0003 </r>
        <r>  0.0173  0.0711  0.0489  0.0267  0.0006  0.0023  0.0006  0.0006  0.0006 </r>
        <r>  0.0159  0.0929  0.0148  0.0006  0.0001  0.0050  0.0010  0.0003  0.0007 </r>
       </set>
       <set comment="band 10">
        <r>  0.0125  0.0515  0.0320  0.0158  0.0028  0.0045  0.0011  0.0001  0.0012 </r>
        <r>  0.0228  0.0899  0.0879  0.0179  0.0002  0.0039  0.0015  0.0004  0.0018 </r>
        <r>  0.0124  0.1519  0.0574  0.0001  0.0002  0.0034  0.0017  0.0003  0.0005 </r>
       </set>
       <set comment="band 11">
        <r>  0.0101  0.0229  0.0513  0.1192  0.0003  0.0040  0.0013  0.0005  0.0005 </r>
        <r>  0.0014  0.0295  0.0280  0.0987  0.0013  0.0041  0.0021  0.0027  0.0005 </r>
        <r>  0.0062  0.0483  0.1578  0.0114  0.0029  0.0036  0.0009  0.0003  0.0014 </r>
       </set>
       <set comment="band 12">
        <r>  0.0003  0.0252  0.1350  0.0686  0.0012  0.0002  0.0005  0.0058  0.0009 </r>
        <r>  0.0012  0.0516  0.1054  0.0415  0.0014  0.0005  0.0010  0.0060  0.0015 </r>
        <r>  0.0018  0.0032  0.0053  0.1472  0.0002  0.0004  0.0003  0.0057  0.0021 </r>
       </set>
       <set comment="band 13">
        <r>  0.0011  0.0280  0.0013  0.0219  0.0144  0.0067  0.0113  0.0063  0.0105 </r>
        <r>  0.0011  0.0098  0.0029  0.0021  0.0213  0.0074  0.0081  0.0016  0.0024 </r>
        <r>  0.0036  0.0056  0.0052  0.0029  0.0210  0.0029  0.0082  0.0066  0.0034 </r>
       </set>
       <set comment="band 14">
        <r>  0.0006  0.0087  0.0005  0.0130  0.0080  0.0045  0.0044  0.0080  0.0237 </r>
        <r>  0.0018  0.0137  0.0072  0.0091  0.0047  0.0009  0.0120  0.0174  0.0094 </r>
        <r>  0.0021  0.0042  0.0000  0.0442  0.0006  0.0104  0.0003  0.0036  0.0351 </r>
       </set>
       <set comment="band 15">
        <r>  0.0033  0.0092  0.0018  0.0095  0.0213  0.0054  0.0135  0.0011  0.0025 </r>
        <r>  0.0022  0.0114  0.0009  0.0329  0.0099  0.0042  0.0077  0.0012  0.0345 </r>
        <r>  0.0002  0.0096  0.0001  0.0060  0.0158  0.0060  0.0254  0.0032  0.0015 </r>
       </set>
       <set comment="band 16">
        <r>  0.0006  0.0033  0.0052  0.0017  0.0082  0.0087  0.0418  0.0154  0.0067 </r>
        <r>  0.0023  0.0022  0.0082  0.0077  0.0130  0.0165  0.0436  0.0045  0.0032 </r>
        <r>  0.0001  0.0031  0.0174  0.0065  0.0187  0.0014  0.0294  0.0072  0.0009 </r>
       </set>
       <set comment="band 17">
        <r>  0.0178  0.0124  0.0003  0.0056  0.0192  0.0039  0.0035  0.0097  0.0110 </r>
        <r>  0.0084  0.0105  0.0098  0.0001  0.0120  0.0070  0.0056  0.0422  0.0069 </r>
        <r>  0.0142  0.0078  0.0081  0.0008  0.0259  0.0062  0.0200  0.0407  0.0097 </r>
       </set>
       <set comment="band 18">
        <r>  0.0088  0.0099  0.0087  0.0113  0.0051  0.0123  0.0085  0.0283  0.0210 </r>
        <r>  0.0031  0.0038  0.0012  0.0109  0.0253  0.0211  0.0167  0.0079  0.0018 </r>
        <r>  0.0094  0.0051  0.0045  0.0017  0.0095  0.0447  0.0228  0.0129  0.0096 </r>
       </set>
       <set comment="band 19">
        <r>  0.0008  0.0001  0.0144  0.0070  0.0232  0.0155  0.0446  0.0267  0.0041 </r>
        <r>  0.0022  0.0019  0.0171  0.0106  0.0100  0.0022  0.0224  0.0220  0.0285 </r>
        <r>  0.0056  0.0076  0.0012  0.0031  0.0069  0.0096  0.0106  0.0158  0.0156 </r>
       </set>
       <set comment="band 20">
        <r>  0.0033  0.0103  0.0100  0.0161  0.0026  0.0725  0.0004  0.0117  0.0145 </r>
        <r>  0.0353  0.0154  0.0030  0.0023  0.0143  0.0047  0.0134  0.0108  0.0056 </r>
        <r>  0.0032  0.0182  0.0012  0.0163  0.0067  0.0234  0.0106  0.0537  0.0153 </r>
       </set>
       <set comment="band 21">
        <r>  0.0246  0.0037  0.0064  0.0060  0.0026  0.0525  0.0111  0.0164  0.0066 </r>
        <r>  0.0006  0.0213  0.0080  0.0025  0.0005  0.0897  0.0031  0.0341  0.0036 </r>
        <r>  0.0208  0.0213  0.0239  0.0053  0.0040  0.0233  0.0112  0.0070  0.0100 </r>
       </set>
       <set comment="band 22">
        <r>  0.0000  0.0141  0.0024  0.0222  0.0098  0.0020  0.0261  0.0022  0.1002 </r>
        <r>  0.0000  0.0027  0.0030  0.0102  0.0109  0.0025  0.0068  0.0076  0.0270 </r>
        <r>  0.0030  0.0146  0.0021  0.0109  0.0323  0.0061  0.0298  0.0042  0.0717 </r>
       </set>
       <set comment="band 23">
        <r>  0.0007  0.0045  0.0059  0.0074  0.0070  0.0016  0.0185  0.0111  0.0858 </r>
        <r>  0.0020  0.0253  0.0001  0.0113  0.0216  0.0163  0.0081  0.0042  0.0909 </r>
        <r>  0.0001  0.0008  0.0003  0.0030  0.0186  0.0108  0.0219  0.0271  0.0112 </r>
       </set>
       <set comment="band 24">
        <r>  0.0168  0.0342  0.0187  0.0110  0.0184  0.0206  0.0425  0.0091  0.0009 </r>
        <r>  0.0052  0.0202  0.0089  0.0073  0.0085  0.0493  0.0444  0.0002  0.0511 </r>
        <r>  0.0110  0.0232  0.0074  0.0015  0.0015  0.0561  0.0041  0.0093  0.0337 </r>
       </set>
       <set comment="band 25">
        <r>  0.0002  0.0167  0.0050  0.0038  0.0150  0.0043  0.0007  0.0334  0.0106 </r>
        <r>  0.0104  0.0008  0.0227  0.0252  0.0009  0.0199  0.0149  0.0023  0.0267 </r>
        <r>  0.0076  0.0001  0.0093  0.0385  0.0073  0.0247  0.0189  0.0043  0.0774 </r>
       </set>
       <set comment="band 26">
        <r>  0.0017  0.0018  0.0143  0.0113  0.0217  0.0257  0.0249  0.0396  0.0027 </r>
        <r>  0.0001  0.0021  0.0062  0.0304  0.0136  0.0053  0.0897  0.0131  0.0105 </r>
        <r>  0.0007  0.0056  0.0241  0.0017  0.0038  0.0230  0.0668  0.0284  0.0035 </r>
       </set>
       <set comment="band 27">
        <r>  0.0007  0.0101  0.0010  0.0022  0.0222  0.0039  0.0303  0.0123  0.0091 </r>
        <r>  0.0005  0.0303  0.0002  0.0031  0.1399  0.0075  0.0028  0.0044  0.0064 </r>
        <r>  0.0008  0.0236  0.0017  0.0045  0.0480  0.0002  0.0028  0.0145  0.0004 </r>
       </set>
       <set comment="band 28">
        <r>  0.0047  0.0015  0.0051  0.0120  0.0772  0.0200  0.0089  0.0536  0.0034 </r>
        <r>  0.0078  0.0007  0.0176  0.0089  0.0579  0.0111  0.0164  0.0284  0.0044 </r>
        <r>  0.0052  0.0001  0.0011  0.0373  0.0996  0.0040  0.0005  0.0138  0.0249 </r>
       </set>
       <set comment="band 29">
        <r>  0.0008  0.0154  0.0277  0.0157  0.0973  0.0048  0.0568  0.0014  0.0022 </r>
        <r>  0.0003  0.0012  0.0018  0.0013  0.0101  0.0031  0.0164  0.0376  0.0571 </r>
        <r>  0.0006  0.0082  0.0100  0.0085  0.0233  0.0043  0.0554  0.0100  0.0075 </r>
       </set>
       <set comment="band 30">
        <r>  0.0081  0.0052  0.0017  0.0041  0.0117  0.0009  0.0177  0.0449  0.0873 </r>
        <r>  0.0074  0.0040  0.0139  0.0145  0.0087  0.0121  0.0348  0.0596  0.0210 </r>
        <r>  0.0060  0.0081  0.0285  0.0041  0.0201  0.0376  0.0113  0.0085  0.0423 </r>
       </set>
       <set comment="band 31">
        <r>  0.0030  0.0055  0.0016  0.0023  0.0068  0.0116  0.0086  0.0090  0.0017 </r>
        <r>  0.0027  0.0042  0.0042  0.0019  0.0047  0.0665  0.0388  0.0156  0.0098 </r>
        <r>  0.0066  0.0027  0.0011  0.0045  0.0432  0.0310  0.0467  0.0069  0.0051 </r>
       </set>
       <set comment="band 32">
        <r>  0.0031  0.0010  0.0037  0.0106  0.0387  0.0119  0.0000  0.0348  0.0208 </r>
        <r>  0.0126  0.0042  0.0029  0.0053  0.0316  0.0011  0.0012  0.0728  0.0301 </r>
        <r>  0.0054  0.0043  0.0011  0.0092  0.0498  0.0449  0.0200  0.0962  0.0558 </r>
       </set>
      </set>
      <set comment="kpoint 41">
       <set comment="band 1">
        <r>  0.2032  0.0001  0.0031  0.0012  0.0000  0.0001  0.0000  0.0001  0.0000 </r>
        <r>  0.2032  0.0009  0.0031  0.0004  0.0000  0.0001  0.0000  0.0001  0.0000 </r>
        <r>  0.2032  0.0009  0.0031  0.0004  0.0000  0.0001  0.0000  0.0001  0.0000 </r>
       </set>
       <set comment="band 2">
        <r>  0.2057  0.0003  0.0079  0.0007  0.0001  0.0000  0.0000  0.0002  0.0000 </r>
        <r>  0.2057  0.0006  0.0079  0.0004  0.0000  0.0002  0.0000  0.0001  0.0001 </r>
        <r>  0.2056  0.0006  0.0079  0.0004  0.0000  0.0002  0.0000  0.0001  0.0001 </r>
       </set>
       <set comment="band 3">
        <r>  0.2679  0.0002  0.0034  0.0011  0.0000  0.0000  0.0000  0.0001  0.0000 </r>
        <r>  0.2679  0.0009  0.0034  0.0004  0.0000  0.0001  0.0000  0.0000  0.0000 </r>
        <r>  0.2679  0.0009  0.0034  0.0004  0.0000  0.0001  0.0000  0.0000  0.0000 </r>
       </set>
       <set comment="band 4">
        <r>  0.0083  0.0203  0.1426  0.0031  0.0014  0.0000  0.0001  0.0020  0.0000 </r>
        <r>  0.0083  0.0074  0.1426  0.0160  0.0003  0.0015  0.0001  0.0005  0.0010 </r>
        <r>  0.0083  0.0074  0.1426  0.0160  0.0003  0.0015  0.0001  0.0005  0.0010 </r>
       </set>
       <set comment="band 5">
        <r>  0.0009  0.0155  0.0024  0.1502  0.0000  0.0007  0.0003  0.0008  0.0007 </r>
        <r>  0.0009  0.1165  0.0024  0.0492  0.0005  0.0008  0.0003  0.0008  0.0002 </r>
        <r>  0.0009  0.1165  0.0024  0.0492  0.0005  0.0008  0.0003  0.0008  0.0002 </r>
       </set>
       <set comment="band 6">
        <r>  0.0038  0.0435  0.0089  0.1188  0.0001  0.0005  0.0001  0.0014  0.0000 </r>
        <r>  0.0038  0.1000  0.0089  0.0623  0.0000  0.0012  0.0001  0.0007  0.0000 </r>
        <r>  0.0038  0.1000  0.0089  0.0623  0.0000  0.0012  0.0001  0.0007  0.0000 </r>
       </set>
       <set comment="band 7">
        <r>  0.0005  0.1434  0.0190  0.0017  0.0014  0.0000  0.0001  0.0009  0.0003 </r>
        <r>  0.0005  0.0371  0.0190  0.1080  0.0006  0.0007  0.0001  0.0002  0.0011 </r>
        <r>  0.0005  0.0371  0.0190  0.1080  0.0006  0.0007  0.0001  0.0002  0.0011 </r>
       </set>
       <set comment="band 8">
        <r>  0.0189  0.0749  0.0641  0.0103  0.0001  0.0000  0.0012  0.0003  0.0019 </r>
        <r>  0.0189  0.0265  0.0641  0.0587  0.0014  0.0002  0.0012  0.0001  0.0006 </r>
        <r>  0.0189  0.0265  0.0641  0.0587  0.0014  0.0002  0.0012  0.0001  0.0006 </r>
       </set>
       <set comment="band 9">
        <r>  0.0042  0.1278  0.0292  0.0088  0.0002  0.0000  0.0002  0.0007  0.0017 </r>
        <r>  0.0042  0.0386  0.0292  0.0980  0.0014  0.0005  0.0002  0.0002  0.0006 </r>
        <r>  0.0042  0.0386  0.0292  0.0980  0.0014  0.0005  0.0002  0.0002  0.0006 </r>
       </set>
       <set comment="band 10">
        <r>  0.0225  0.0474  0.0492  0.0352  0.0013  0.0000  0.0012  0.0047  0.0017 </r>
        <r>  0.0225  0.0382  0.0492  0.0443  0.0016  0.0035  0.0012  0.0012  0.0014 </r>
        <r>  0.0225  0.0382  0.0492  0.0443  0.0016  0.0035  0.0012  0.0012  0.0014 </r>
       </set>
       <set comment="band 11">
        <r>  0.0017  0.0040  0.0009  0.1523  0.0001  0.0037  0.0029  0.0000  0.0039 </r>
        <r>  0.0017  0.1152  0.0009  0.0411  0.0030  0.0009  0.0029  0.0028  0.0011 </r>
        <r>  0.0017  0.1153  0.0009  0.0411  0.0030  0.0009  0.0029  0.0028  0.0011 </r>
       </set>
       <set comment="band 12">
        <r>  0.0239  0.0215  0.1048  0.0038  0.0037  0.0000  0.0013  0.0027  0.0004 </r>
        <r>  0.0239  0.0083  0.1048  0.0171  0.0012  0.0020  0.0013  0.0007  0.0029 </r>
        <r>  0.0239  0.0083  0.1048  0.0171  0.0012  0.0020  0.0013  0.0007  0.0029 </r>
       </set>
       <set comment="band 13">
        <r>  0.0005  0.0010  0.0022  0.0006  0.0004  0.0025  0.0520  0.0000  0.0053 </r>
        <r>  0.0005  0.0007  0.0022  0.0009  0.0041  0.0007  0.0520  0.0019  0.0016 </r>
        <r>  0.0005  0.0007  0.0022  0.0009  0.0041  0.0007  0.0520  0.0019  0.0016 </r>
       </set>
       <set comment="band 14">
        <r>  0.0008  0.0000  0.0007  0.0005  0.0275  0.0182  0.0000  0.0038  0.0161 </r>
        <r>  0.0008  0.0004  0.0007  0.0002  0.0189  0.0074  0.0000  0.0146  0.0246 </r>
        <r>  0.0008  0.0004  0.0007  0.0002  0.0190  0.0074  0.0000  0.0146  0.0246 </r>
       </set>
       <set comment="band 15">
        <r>  0.0005  0.0023  0.0005  0.0001  0.0323  0.0169  0.0001  0.0033  0.0132 </r>
        <r>  0.0005  0.0007  0.0005  0.0018  0.0180  0.0067  0.0001  0.0135  0.0275 </r>
        <r>  0.0005  0.0007  0.0005  0.0018  0.0180  0.0067  0.0001  0.0135  0.0275 </r>
       </set>
       <set comment="band 16">
        <r>  0.0001  0.0045  0.0580  0.0087  0.0062  0.0114  0.0177  0.0067  0.0107 </r>
        <r>  0.0001  0.0077  0.0580  0.0055  0.0095  0.0079  0.0177  0.0102  0.0073 </r>
        <r>  0.0001  0.0077  0.0580  0.0055  0.0095  0.0078  0.0177  0.0102  0.0073 </r>
       </set>
       <set comment="band 17">
        <r>  0.0000  0.0001  0.0000  0.0000  0.0075  0.0000  0.0029  0.0167  0.0001 </r>
        <r>  0.0000  0.0000  0.0000  0.0001  0.0019  0.0125  0.0029  0.0042  0.0057 </r>
        <r>  0.0000  0.0000  0.0000  0.0001  0.0019  0.0125  0.0029  0.0042  0.0057 </r>
       </set>
       <set comment="band 18">
        <r>  0.0279  0.0002  0.0696  0.0067  0.0000  0.0077  0.0027  0.0001  0.0003 </r>
        <r>  0.0279  0.0051  0.0696  0.0018  0.0002  0.0020  0.0027  0.0058  0.0001 </r>
        <r>  0.0279  0.0051  0.0696  0.0018  0.0002  0.0020  0.0027  0.0058  0.0001 </r>
       </set>
       <set comment="band 19">
        <r>  0.0021  0.0014  0.0003  0.0269  0.0028  0.0098  0.0009  0.0384  0.0303 </r>
        <r>  0.0021  0.0206  0.0003  0.0078  0.0234  0.0312  0.0009  0.0170  0.0097 </r>
        <r>  0.0021  0.0206  0.0003  0.0078  0.0234  0.0312  0.0009  0.0170  0.0097 </r>
       </set>
       <set comment="band 20">
        <r>  0.0009  0.0116  0.0207  0.0044  0.0023  0.0195  0.0091  0.0233  0.0207 </r>
        <r>  0.0009  0.0062  0.0207  0.0098  0.0161  0.0224  0.0091  0.0205  0.0069 </r>
        <r>  0.0009  0.0062  0.0207  0.0098  0.0161  0.0224  0.0091  0.0205  0.0069 </r>
       </set>
       <set comment="band 21">
        <r>  0.0007  0.0190  0.0025  0.0059  0.0236  0.0153  0.0022  0.0023  0.0340 </r>
        <r>  0.0007  0.0092  0.0025  0.0157  0.0314  0.0056  0.0022  0.0121  0.0262 </r>
        <r>  0.0007  0.0092  0.0025  0.0157  0.0314  0.0056  0.0022  0.0121  0.0262 </r>
       </set>
       <set comment="band 22">
        <r>  0.0010  0.0087  0.0008  0.0198  0.0166  0.0001  0.0009  0.0780  0.0189 </r>
        <r>  0.0010  0.0171  0.0008  0.0115  0.0183  0.0585  0.0009  0.0196  0.0172 </r>
        <r>  0.0010  0.0171  0.0008  0.0115  0.0183  0.0585  0.0009  0.0196  0.0172 </r>
       </set>
       <set comment="band 23">
        <r>  0.0001  0.0074  0.0006  0.0025  0.0326  0.0361  0.0003  0.0148  0.0001 </r>
        <r>  0.0001  0.0037  0.0006  0.0062  0.0083  0.0201  0.0003  0.0308  0.0245 </r>
        <r>  0.0001  0.0037  0.0006  0.0062  0.0083  0.0201  0.0003  0.0308  0.0245 </r>
       </set>
       <set comment="band 24">
        <r>  0.0154  0.0077  0.0002  0.0026  0.0033  0.0528  0.0091  0.0395  0.0101 </r>
        <r>  0.0154  0.0039  0.0002  0.0064  0.0084  0.0428  0.0091  0.0495  0.0050 </r>
        <r>  0.0154  0.0039  0.0002  0.0064  0.0084  0.0428  0.0091  0.0495  0.0050 </r>
       </set>
       <set comment="band 25">
        <r>  0.0152  0.0075  0.0049  0.0001  0.0188  0.0385  0.0169  0.0079  0.0146 </r>
        <r>  0.0152  0.0019  0.0049  0.0056  0.0157  0.0156  0.0169  0.0309  0.0178 </r>
        <r>  0.0152  0.0019  0.0049  0.0056  0.0157  0.0156  0.0169  0.0309  0.0178 </r>
       </set>
       <set comment="band 26">
        <r>  0.0121  0.0026  0.0112  0.0049  0.0019  0.0114  0.0587  0.0090  0.0058 </r>
        <r>  0.0121  0.0044  0.0112  0.0032  0.0049  0.0096  0.0587  0.0108  0.0029 </r>
        <r>  0.0121  0.0044  0.0112  0.0032  0.0049  0.0096  0.0587  0.0108  0.0029 </r>
       </set>
       <set comment="band 27">
        <r>  0.0246  0.0025  0.0121  0.0071  0.0003  0.0160  0.0210  0.0109  0.0065 </r>
        <r>  0.0246  0.0060  0.0121  0.0037  0.0049  0.0122  0.0210  0.0147  0.0019 </r>
        <r>  0.0246  0.0060  0.0121  0.0037  0.0049  0.0122  0.0210  0.0147  0.0019 </r>
       </set>
       <set comment="band 28">
        <r>  0.0000  0.0093  0.0001  0.0000  0.0416  0.0554  0.0001  0.0005  0.0054 </r>
        <r>  0.0000  0.0023  0.0001  0.0070  0.0144  0.0142  0.0001  0.0417  0.0326 </r>
        <r>  0.0000  0.0023  0.0001  0.0070  0.0144  0.0142  0.0001  0.0417  0.0326 </r>
       </set>
       <set comment="band 29">
        <r>  0.0002  0.0007  0.0043  0.0017  0.0039  0.0005  0.0720  0.0123  0.0038 </r>
        <r>  0.0002  0.0014  0.0043  0.0010  0.0038  0.0093  0.0720  0.0035  0.0039 </r>
        <r>  0.0002  0.0014  0.0043  0.0010  0.0038  0.0093  0.0720  0.0035  0.0039 </r>
       </set>
       <set comment="band 30">
        <r>  0.0015  0.0026  0.0000  0.0117  0.0326  0.0033  0.2241  0.0027  0.0025 </r>
        <r>  0.0015  0.0089  0.0000  0.0050  0.0090  0.0033  0.2241  0.0030  0.0284 </r>
        <r>  0.0014  0.0088  0.0000  0.0045  0.0089  0.0024  0.2273  0.0023  0.0221 </r>
       </set>
       <set comment="band 31">
        <r>  0.0001  0.0020  0.0063  0.0006  0.0003  0.0622  0.0010  0.0585  0.1632 </r>
        <r>  0.0001  0.0011  0.0061  0.0019  0.1145  0.0611  0.0009  0.0637  0.0362 </r>
        <r>  0.0001  0.0011  0.0062  0.0018  0.1170  0.0619  0.0009  0.0625  0.0368 </r>
       </set>
       <set comment="band 32">
        <r>  0.0012  0.0034  0.0012  0.0085  0.0045  0.0422  0.0039  0.1624  0.1031 </r>
        <r>  0.0011  0.0071  0.0010  0.0045  0.0938  0.1269  0.0039  0.0702  0.0344 </r>
        <r>  0.0012  0.0070  0.0010  0.0046  0.0933  0.1267  0.0042  0.0705  0.0332 </r>
       </set>
      </set>
      <set comment="kpoint 42">
       <set comment="band 1">
        <r>  0.2009  0.0003  0.0031  0.0015  0.0000  0.0001  0.0000  0.0001  0.0000 </r>
        <r>  0.2111  0.0011  0.0028  0.0004  0.0001  0.0001  0.0000  0.0001  0.0000 </r>
        <r>  0.2009  0.0010  0.0031  0.0008  0.0000  0.0001  0.0000  0.0001  0.0000 </r>
       </set>
       <set comment="band 2">
        <r>  0.2121  0.0002  0.0073  0.0011  0.0001  0.0001  0.0000  0.0002  0.0000 </r>
        <r>  0.1977  0.0006  0.0079  0.0009  0.0000  0.0002  0.0000  0.0001  0.0001 </r>
        <r>  0.2120  0.0008  0.0073  0.0004  0.0001  0.0002  0.0000  0.0002  0.0000 </r>
       </set>
       <set comment="band 3">
        <r>  0.2596  0.0001  0.0026  0.0035  0.0000  0.0001  0.0000  0.0000  0.0000 </r>
        <r>  0.2645  0.0010  0.0029  0.0019  0.0000  0.0001  0.0000  0.0001  0.0000 </r>
        <r>  0.2596  0.0023  0.0026  0.0013  0.0000  0.0000  0.0000  0.0001  0.0000 </r>
       </set>
       <set comment="band 4">
        <r>  0.0061  0.0374  0.1340  0.0078  0.0014  0.0000  0.0002  0.0025  0.0000 </r>
        <r>  0.0011  0.0105  0.1153  0.0110  0.0004  0.0011  0.0000  0.0006  0.0010 </r>
        <r>  0.0061  0.0017  0.1340  0.0434  0.0005  0.0016  0.0002  0.0010  0.0010 </r>
       </set>
       <set comment="band 5">
        <r>  0.0018  0.0013  0.0178  0.1073  0.0000  0.0008  0.0006  0.0013  0.0006 </r>
        <r>  0.0182  0.1474  0.0042  0.0681  0.0011  0.0003  0.0003  0.0003  0.0005 </r>
        <r>  0.0018  0.0810  0.0178  0.0276  0.0005  0.0014  0.0006  0.0007  0.0001 </r>
       </set>
       <set comment="band 6">
        <r>  0.0144  0.0283  0.0032  0.1525  0.0003  0.0001  0.0001  0.0007  0.0002 </r>
        <r>  0.0008  0.0393  0.0525  0.0343  0.0001  0.0026  0.0000  0.0017  0.0001 </r>
        <r>  0.0144  0.1468  0.0032  0.0340  0.0002  0.0006  0.0001  0.0002  0.0003 </r>
       </set>
       <set comment="band 7">
        <r>  0.0015  0.0716  0.0492  0.0023  0.0014  0.0000  0.0000  0.0015  0.0002 </r>
        <r>  0.0214  0.0394  0.0378  0.1180  0.0003  0.0001  0.0010  0.0001  0.0004 </r>
        <r>  0.0015  0.0088  0.0492  0.0651  0.0007  0.0010  0.0000  0.0005  0.0008 </r>
       </set>
       <set comment="band 8">
        <r>  0.0147  0.0828  0.0260  0.0171  0.0000  0.0011  0.0008  0.0000  0.0017 </r>
        <r>  0.0011  0.0670  0.0374  0.0903  0.0019  0.0002  0.0000  0.0001  0.0006 </r>
        <r>  0.0147  0.0395  0.0260  0.0604  0.0012  0.0001  0.0008  0.0010  0.0005 </r>
       </set>
       <set comment="band 9">
        <r>  0.0121  0.1662  0.0368  0.0024  0.0003  0.0003  0.0001  0.0004  0.0008 </r>
        <r>  0.0050  0.0101  0.0190  0.0281  0.0007  0.0006  0.0009  0.0002  0.0006 </r>
        <r>  0.0121  0.0354  0.0368  0.1331  0.0006  0.0006  0.0001  0.0000  0.0005 </r>
       </set>
       <set comment="band 10">
        <r>  0.0056  0.0665  0.0079  0.0699  0.0000  0.0008  0.0019  0.0018  0.0046 </r>
        <r>  0.0063  0.1446  0.0053  0.0581  0.0002  0.0024  0.0019  0.0028  0.0007 </r>
        <r>  0.0056  0.1263  0.0079  0.0101  0.0031  0.0025  0.0019  0.0001  0.0016 </r>
       </set>
       <set comment="band 11">
        <r>  0.0175  0.0223  0.0320  0.1079  0.0005  0.0014  0.0028  0.0015  0.0002 </r>
        <r>  0.0014  0.0018  0.1477  0.0013  0.0036  0.0026  0.0022  0.0014  0.0030 </r>
        <r>  0.0175  0.0465  0.0321  0.0837  0.0001  0.0002  0.0027  0.0026  0.0006 </r>
       </set>
       <set comment="band 12">
        <r>  0.0096  0.0236  0.1283  0.0157  0.0049  0.0000  0.0008  0.0031  0.0008 </r>
        <r>  0.0285  0.0299  0.0141  0.0797  0.0009  0.0016  0.0019  0.0006  0.0004 </r>
        <r>  0.0096  0.0043  0.1283  0.0351  0.0026  0.0026  0.0008  0.0005  0.0031 </r>
       </set>
       <set comment="band 13">
        <r>  0.0007  0.0000  0.0047  0.0041  0.0015  0.0013  0.0467  0.0002  0.0085 </r>
        <r>  0.0006  0.0020  0.0004  0.0054  0.0020  0.0022  0.0489  0.0047  0.0021 </r>
        <r>  0.0007  0.0032  0.0047  0.0010  0.0098  0.0009  0.0467  0.0006  0.0002 </r>
       </set>
       <set comment="band 14">
        <r>  0.0002  0.0052  0.0002  0.0011  0.0300  0.0105  0.0042  0.0080  0.0065 </r>
        <r>  0.0003  0.0015  0.0084  0.0041  0.0201  0.0039  0.0019  0.0113  0.0095 </r>
        <r>  0.0002  0.0003  0.0002  0.0061  0.0173  0.0081  0.0042  0.0105  0.0192 </r>
       </set>
       <set comment="band 15">
        <r>  0.0007  0.0020  0.0017  0.0016  0.0155  0.0229  0.0018  0.0006  0.0189 </r>
        <r>  0.0003  0.0054  0.0002  0.0043  0.0158  0.0073  0.0033  0.0040  0.0430 </r>
        <r>  0.0007  0.0020  0.0017  0.0016  0.0070  0.0072  0.0018  0.0163  0.0275 </r>
       </set>
       <set comment="band 16">
        <r>  0.0011  0.0001  0.0338  0.0049  0.0055  0.0121  0.0154  0.0181  0.0158 </r>
        <r>  0.0000  0.0078  0.0283  0.0042  0.0055  0.0249  0.0070  0.0192  0.0081 </r>
        <r>  0.0011  0.0041  0.0338  0.0008  0.0112  0.0240  0.0154  0.0061  0.0101 </r>
       </set>
       <set comment="band 17">
        <r>  0.0286  0.0005  0.0298  0.0065  0.0021  0.0113  0.0035  0.0193  0.0068 </r>
        <r>  0.0281  0.0032  0.0559  0.0019  0.0050  0.0012  0.0000  0.0022  0.0018 </r>
        <r>  0.0286  0.0062  0.0298  0.0008  0.0088  0.0046  0.0035  0.0260  0.0001 </r>
       </set>
       <set comment="band 18">
        <r>  0.0020  0.0036  0.0136  0.0131  0.0113  0.0146  0.0009  0.0026  0.0266 </r>
        <r>  0.0025  0.0089  0.0012  0.0031  0.0036  0.0164  0.0043  0.0301  0.0099 </r>
        <r>  0.0020  0.0128  0.0136  0.0038  0.0265  0.0043  0.0009  0.0128  0.0113 </r>
       </set>
       <set comment="band 19">
        <r>  0.0004  0.0022  0.0105  0.0012  0.0127  0.0190  0.0035  0.0096  0.0016 </r>
        <r>  0.0031  0.0035  0.0060  0.0048  0.0012  0.0335  0.0102  0.0112  0.0015 </r>
        <r>  0.0004  0.0028  0.0105  0.0006  0.0005  0.0200  0.0035  0.0085  0.0139 </r>
       </set>
       <set comment="band 20">
        <r>  0.0042  0.0132  0.0212  0.0206  0.0272  0.0038  0.0035  0.0058  0.0010 </r>
        <r>  0.0058  0.0021  0.0008  0.0017  0.0739  0.0049  0.0063  0.0043  0.0248 </r>
        <r>  0.0042  0.0051  0.0212  0.0286  0.0113  0.0067  0.0035  0.0028  0.0169 </r>
       </set>
       <set comment="band 21">
        <r>  0.0118  0.0029  0.0059  0.0050  0.0086  0.0065  0.0012  0.0689  0.0312 </r>
        <r>  0.0004  0.0081  0.0293  0.0240  0.0041  0.0082  0.0027  0.0036  0.0083 </r>
        <r>  0.0118  0.0050  0.0059  0.0029  0.0392  0.0503  0.0012  0.0251  0.0007 </r>
       </set>
       <set comment="band 22">
        <r>  0.0026  0.0051  0.0172  0.0059  0.0078  0.0069  0.0187  0.0493  0.0168 </r>
        <r>  0.0001  0.0096  0.0057  0.0054  0.0015  0.0283  0.0073  0.0498  0.0040 </r>
        <r>  0.0026  0.0092  0.0172  0.0018  0.0086  0.0334  0.0187  0.0228  0.0160 </r>
       </set>
       <set comment="band 23">
        <r>  0.0056  0.0161  0.0038  0.0006  0.0282  0.0296  0.0147  0.0010  0.0277 </r>
        <r>  0.0154  0.0048  0.0132  0.0024  0.0124  0.0071  0.0114  0.0051  0.0176 </r>
        <r>  0.0056  0.0072  0.0038  0.0095  0.0104  0.0037  0.0147  0.0269  0.0455 </r>
       </set>
       <set comment="band 24">
        <r>  0.0049  0.0026  0.0043  0.0025  0.0178  0.0474  0.0016  0.0037  0.0084 </r>
        <r>  0.0011  0.0105  0.0028  0.0090  0.0071  0.0760  0.0120  0.0319  0.0206 </r>
        <r>  0.0049  0.0032  0.0043  0.0019  0.0136  0.0190  0.0016  0.0321  0.0125 </r>
       </set>
       <set comment="band 25">
        <r>  0.0039  0.0146  0.0008  0.0003  0.0112  0.0154  0.0062  0.0402  0.0127 </r>
        <r>  0.0103  0.0108  0.0004  0.0043  0.0117  0.0224  0.0292  0.0637  0.0317 </r>
        <r>  0.0039  0.0057  0.0008  0.0092  0.0099  0.0279  0.0062  0.0277  0.0140 </r>
       </set>
       <set comment="band 26">
        <r>  0.0072  0.0058  0.0013  0.0115  0.0001  0.0720  0.0229  0.0089  0.0100 </r>
        <r>  0.0143  0.0022  0.0021  0.0054  0.0067  0.0126  0.0223  0.0059  0.0172 </r>
        <r>  0.0072  0.0108  0.0013  0.0065  0.0068  0.0458  0.0229  0.0350  0.0033 </r>
       </set>
       <set comment="band 27">
        <r>  0.0265  0.0047  0.0191  0.0170  0.0018  0.0055  0.0463  0.0188  0.0058 </r>
        <r>  0.0130  0.0038  0.0069  0.0086  0.0101  0.0055  0.0096  0.0164  0.0056 </r>
        <r>  0.0265  0.0107  0.0191  0.0111  0.0052  0.0151  0.0463  0.0091  0.0024 </r>
       </set>
       <set comment="band 28">
        <r>  0.0006  0.0085  0.0033  0.0022  0.0425  0.0392  0.0238  0.0071  0.0010 </r>
        <r>  0.0031  0.0052  0.0106  0.0105  0.0276  0.0169  0.0318  0.0383  0.0153 </r>
        <r>  0.0006  0.0003  0.0033  0.0104  0.0170  0.0043  0.0238  0.0419  0.0265 </r>
       </set>
       <set comment="band 29">
        <r>  0.0002  0.0018  0.0038  0.0027  0.0063  0.0018  0.0588  0.0131  0.0086 </r>
        <r>  0.0000  0.0013  0.0047  0.0009  0.0051  0.0121  0.0901  0.0042  0.0069 </r>
        <r>  0.0002  0.0034  0.0038  0.0011  0.0064  0.0115  0.0590  0.0034  0.0085 </r>
       </set>
       <set comment="band 30">
        <r>  0.0023  0.0016  0.0005  0.0122  0.0103  0.0011  0.0244  0.0024  0.0627 </r>
        <r>  0.0000  0.0067  0.0004  0.0023  0.0250  0.0041  0.0001  0.0048  0.0544 </r>
        <r>  0.0027  0.0122  0.0005  0.0024  0.0469  0.0036  0.0248  0.0003  0.0302 </r>
       </set>
       <set comment="band 31">
        <r>  0.0050  0.0077  0.0005  0.0144  0.0358  0.0173  0.0482  0.0022  0.0516 </r>
        <r>  0.0037  0.0033  0.0000  0.0049  0.0198  0.0028  0.0113  0.0075  0.0194 </r>
        <r>  0.0048  0.0077  0.0005  0.0138  0.0287  0.0008  0.0493  0.0183  0.0559 </r>
       </set>
       <set comment="band 32">
        <r>  0.0014  0.0120  0.0054  0.0007  0.0211  0.0005  0.0008  0.0489  0.0467 </r>
        <r>  0.0051  0.0082  0.0073  0.0141  0.0596  0.0065  0.0102  0.0176  0.0492 </r>
        <r>  0.0025  0.0033  0.0039  0.0130  0.0215  0.0245  0.0034  0.0119  0.0583 </r>
       </set>
      </set>
      <set comment="kpoint 43">
       <set comment="band 1">
        <r>  0.2073  0.0007  0.0031  0.0011  0.0000  0.0000  0.0000  0.0001  0.0000 </r>
        <r>  0.2026  0.0014  0.0030  0.0004  0.0000  0.0001  0.0000  0.0001  0.0000 </r>
        <r>  0.2026  0.0014  0.0030  0.0004  0.0000  0.0001  0.0000  0.0001  0.0000 </r>
       </set>
       <set comment="band 2">
        <r>  0.2042  0.0001  0.0076  0.0010  0.0001  0.0001  0.0000  0.0002  0.0001 </r>
        <r>  0.2090  0.0008  0.0073  0.0005  0.0000  0.0002  0.0000  0.0001  0.0001 </r>
        <r>  0.2090  0.0008  0.0073  0.0005  0.0000  0.0002  0.0000  0.0001  0.0001 </r>
       </set>
       <set comment="band 3">
        <r>  0.2599  0.0002  0.0021  0.0014  0.0000  0.0001  0.0000  0.0000  0.0001 </r>
        <r>  0.2644  0.0033  0.0027  0.0004  0.0000  0.0002  0.0000  0.0000  0.0000 </r>
        <r>  0.2644  0.0033  0.0027  0.0004  0.0000  0.0002  0.0000  0.0000  0.0000 </r>
       </set>
       <set comment="band 4">
        <r>  0.0072  0.0678  0.0981  0.0007  0.0013  0.0000  0.0003  0.0024  0.0002 </r>
        <r>  0.0028  0.0122  0.1352  0.0141  0.0002  0.0011  0.0001  0.0007  0.0011 </r>
        <r>  0.0028  0.0122  0.1352  0.0141  0.0002  0.0011  0.0001  0.0007  0.0011 </r>
       </set>
       <set comment="band 5">
        <r>  0.0070  0.0115  0.0627  0.0482  0.0000  0.0010  0.0004  0.0011  0.0005 </r>
        <r>  0.0065  0.1186  0.0067  0.0391  0.0006  0.0007  0.0005  0.0002  0.0005 </r>
        <r>  0.0065  0.1186  0.0067  0.0391  0.0006  0.0007  0.0005  0.0002  0.0005 </r>
       </set>
       <set comment="band 6">
        <r>  0.0189  0.0001  0.0028  0.1891  0.0000  0.0002  0.0001  0.0000  0.0000 </r>
        <r>  0.0016  0.0546  0.0219  0.0742  0.0002  0.0013  0.0000  0.0007  0.0005 </r>
        <r>  0.0016  0.0546  0.0219  0.0742  0.0002  0.0013  0.0000  0.0007  0.0005 </r>
       </set>
       <set comment="band 7">
        <r>  0.0023  0.2430  0.0699  0.0006  0.0001  0.0001  0.0001  0.0007  0.0003 </r>
        <r>  0.0106  0.0416  0.0176  0.0214  0.0000  0.0019  0.0005  0.0001  0.0007 </r>
        <r>  0.0106  0.0416  0.0176  0.0214  0.0000  0.0019  0.0005  0.0001  0.0007 </r>
       </set>
       <set comment="band 8">
        <r>  0.0002  0.0032  0.0210  0.0479  0.0009  0.0000  0.0005  0.0020  0.0000 </r>
        <r>  0.0084  0.0216  0.0254  0.1570  0.0017  0.0001  0.0007  0.0011  0.0001 </r>
        <r>  0.0084  0.0216  0.0254  0.1570  0.0017  0.0001  0.0007  0.0011  0.0001 </r>
       </set>
       <set comment="band 9">
        <r>  0.0139  0.0210  0.0103  0.0301  0.0001  0.0000  0.0008  0.0000  0.0050 </r>
        <r>  0.0100  0.0727  0.0607  0.0724  0.0006  0.0005  0.0001  0.0005  0.0006 </r>
        <r>  0.0100  0.0727  0.0607  0.0723  0.0006  0.0005  0.0001  0.0005  0.0006 </r>
       </set>
       <set comment="band 10">
        <r>  0.0046  0.0661  0.0582  0.0834  0.0029  0.0011  0.0007  0.0060  0.0001 </r>
        <r>  0.0180  0.0139  0.0117  0.0892  0.0030  0.0004  0.0014  0.0015  0.0022 </r>
        <r>  0.0180  0.0139  0.0117  0.0892  0.0030  0.0004  0.0014  0.0015  0.0022 </r>
       </set>
       <set comment="band 11">
        <r>  0.0225  0.0307  0.0634  0.0768  0.0013  0.0014  0.0000  0.0024  0.0011 </r>
        <r>  0.0179  0.0394  0.0638  0.0245  0.0022  0.0008  0.0030  0.0028  0.0009 </r>
        <r>  0.0179  0.0394  0.0638  0.0245  0.0022  0.0008  0.0030  0.0028  0.0009 </r>
       </set>
       <set comment="band 12">
        <r>  0.0073  0.0587  0.0374  0.0004  0.0032  0.0000  0.0051  0.0001  0.0010 </r>
        <r>  0.0065  0.1120  0.0974  0.0001  0.0009  0.0037  0.0011  0.0003  0.0010 </r>
        <r>  0.0065  0.1120  0.0974  0.0001  0.0009  0.0037  0.0011  0.0003  0.0010 </r>
       </set>
       <set comment="band 13">
        <r>  0.0000  0.0008  0.0017  0.0020  0.0005  0.0030  0.0335  0.0000  0.0185 </r>
        <r>  0.0010  0.0024  0.0019  0.0014  0.0047  0.0055  0.0340  0.0035  0.0070 </r>
        <r>  0.0010  0.0024  0.0019  0.0014  0.0047  0.0055  0.0340  0.0035  0.0070 </r>
       </set>
       <set comment="band 14">
        <r>  0.0013  0.0010  0.0069  0.0025  0.0040  0.0272  0.0157  0.0026  0.0050 </r>
        <r>  0.0001  0.0033  0.0002  0.0007  0.0021  0.0038  0.0193  0.0004  0.0386 </r>
        <r>  0.0001  0.0033  0.0002  0.0007  0.0021  0.0038  0.0193  0.0004  0.0386 </r>
       </set>
       <set comment="band 15">
        <r>  0.0034  0.0002  0.0022  0.0011  0.0425  0.0024  0.0051  0.0017  0.0065 </r>
        <r>  0.0005  0.0082  0.0069  0.0041  0.0326  0.0031  0.0009  0.0283  0.0003 </r>
        <r>  0.0005  0.0082  0.0069  0.0041  0.0326  0.0031  0.0009  0.0283  0.0003 </r>
       </set>
       <set comment="band 16">
        <r>  0.0134  0.0033  0.0114  0.0059  0.0147  0.0227  0.0128  0.0055  0.0240 </r>
        <r>  0.0082  0.0017  0.0260  0.0006  0.0032  0.0405  0.0056  0.0029  0.0125 </r>
        <r>  0.0082  0.0017  0.0260  0.0006  0.0032  0.0405  0.0056  0.0029  0.0125 </r>
       </set>
       <set comment="band 17">
        <r>  0.0099  0.0008  0.1075  0.0000  0.0007  0.0211  0.0059  0.0063  0.0001 </r>
        <r>  0.0147  0.0076  0.0257  0.0050  0.0046  0.0006  0.0147  0.0072  0.0001 </r>
        <r>  0.0147  0.0076  0.0257  0.0050  0.0046  0.0006  0.0147  0.0072  0.0001 </r>
       </set>
       <set comment="band 18">
        <r>  0.0011  0.0010  0.0000  0.0022  0.0082  0.0030  0.0016  0.0135  0.0245 </r>
        <r>  0.0006  0.0032  0.0010  0.0005  0.0024  0.0081  0.0002  0.0083  0.0181 </r>
        <r>  0.0006  0.0032  0.0010  0.0005  0.0024  0.0081  0.0002  0.0083  0.0181 </r>
       </set>
       <set comment="band 19">
        <r>  0.0000  0.0016  0.0056  0.0481  0.0081  0.0003  0.0010  0.0213  0.0045 </r>
        <r>  0.0042  0.0054  0.0297  0.0104  0.0461  0.0039  0.0073  0.0108  0.0042 </r>
        <r>  0.0042  0.0054  0.0297  0.0104  0.0461  0.0039  0.0073  0.0108  0.0042 </r>
       </set>
       <set comment="band 20">
        <r>  0.0001  0.0156  0.0008  0.0010  0.0006  0.0135  0.0072  0.0589  0.0112 </r>
        <r>  0.0015  0.0050  0.0215  0.0067  0.0113  0.0057  0.0048  0.0169  0.0159 </r>
        <r>  0.0015  0.0050  0.0215  0.0067  0.0113  0.0057  0.0048  0.0169  0.0159 </r>
       </set>
       <set comment="band 21">
        <r>  0.0042  0.0098  0.0075  0.0048  0.0406  0.0044  0.0020  0.0112  0.0191 </r>
        <r>  0.0028  0.0100  0.0054  0.0229  0.0256  0.0057  0.0007  0.0270  0.0176 </r>
        <r>  0.0028  0.0100  0.0054  0.0229  0.0256  0.0057  0.0007  0.0270  0.0176 </r>
       </set>
       <set comment="band 22">
        <r>  0.0022  0.0109  0.0043  0.0096  0.0171  0.0088  0.0080  0.0701  0.0027 </r>
        <r>  0.0143  0.0073  0.0134  0.0051  0.0071  0.0535  0.0052  0.0248  0.0126 </r>
        <r>  0.0143  0.0073  0.0134  0.0051  0.0071  0.0535  0.0052  0.0248  0.0126 </r>
       </set>
       <set comment="band 23">
        <r>  0.0224  0.0008  0.0039  0.0059  0.0113  0.0004  0.0046  0.0099  0.0484 </r>
        <r>  0.0088  0.0077  0.0049  0.0094  0.0107  0.0184  0.0046  0.0645  0.0052 </r>
        <r>  0.0088  0.0077  0.0049  0.0094  0.0107  0.0184  0.0046  0.0645  0.0052 </r>
       </set>
       <set comment="band 24">
        <r>  0.0123  0.0074  0.0056  0.0047  0.0034  0.0230  0.0073  0.0334  0.0001 </r>
        <r>  0.0070  0.0007  0.0023  0.0055  0.0063  0.0297  0.0155  0.0247  0.0351 </r>
        <r>  0.0070  0.0007  0.0023  0.0055  0.0063  0.0297  0.0155  0.0247  0.0351 </r>
       </set>
       <set comment="band 25">
        <r>  0.0119  0.0008  0.0045  0.0056  0.0119  0.1076  0.0365  0.0000  0.0059 </r>
        <r>  0.0046  0.0011  0.0022  0.0059  0.0085  0.0490  0.0071  0.0003  0.0047 </r>
        <r>  0.0046  0.0011  0.0022  0.0059  0.0085  0.0490  0.0071  0.0003  0.0047 </r>
       </set>
       <set comment="band 26">
        <r>  0.0118  0.0079  0.0060  0.0001  0.0368  0.0005  0.0081  0.0056  0.0152 </r>
        <r>  0.0163  0.0172  0.0087  0.0031  0.0173  0.0125  0.0302  0.0364  0.0025 </r>
        <r>  0.0163  0.0172  0.0087  0.0031  0.0173  0.0125  0.0302  0.0364  0.0025 </r>
       </set>
       <set comment="band 27">
        <r>  0.0023  0.0136  0.0055  0.0000  0.0006  0.0355  0.0466  0.0012  0.0082 </r>
        <r>  0.0087  0.0062  0.0117  0.0050  0.0157  0.0059  0.0537  0.0209  0.0127 </r>
        <r>  0.0087  0.0062  0.0117  0.0050  0.0157  0.0059  0.0537  0.0210  0.0127 </r>
       </set>
       <set comment="band 28">
        <r>  0.0061  0.0174  0.0093  0.0031  0.0359  0.0501  0.0197  0.0159  0.0048 </r>
        <r>  0.0040  0.0127  0.0042  0.0031  0.0125  0.0343  0.0096  0.0206  0.0264 </r>
        <r>  0.0040  0.0127  0.0042  0.0031  0.0125  0.0343  0.0096  0.0206  0.0265 </r>
       </set>
       <set comment="band 29">
        <r>  0.0005  0.0037  0.0038  0.0023  0.0047  0.0075  0.0427  0.0116  0.0030 </r>
        <r>  0.0001  0.0029  0.0044  0.0008  0.0064  0.0125  0.0799  0.0031  0.0120 </r>
        <r>  0.0001  0.0029  0.0045  0.0008  0.0061  0.0126  0.0802  0.0032  0.0120 </r>
       </set>
       <set comment="band 30">
        <r>  0.0011  0.0028  0.0006  0.0090  0.0487  0.0129  0.0013  0.0024  0.0048 </r>
        <r>  0.0009  0.0012  0.0005  0.0121  0.1023  0.0038  0.0005  0.0119  0.0046 </r>
        <r>  0.0007  0.0005  0.0006  0.0122  0.1081  0.0036  0.0003  0.0107  0.0026 </r>
       </set>
       <set comment="band 31">
        <r>  0.0025  0.0086  0.0012  0.0001  0.0036  0.0021  0.1073  0.0001  0.0145 </r>
        <r>  0.0100  0.0232  0.0001  0.0027  0.0088  0.0030  0.0323  0.0013  0.0447 </r>
        <r>  0.0102  0.0233  0.0000  0.0036  0.0100  0.0034  0.0312  0.0030  0.0444 </r>
       </set>
       <set comment="band 32">
        <r>  0.0086  0.0308  0.0017  0.0011  0.0027  0.0344  0.0207  0.0000  0.1228 </r>
        <r>  0.0027  0.0050  0.0174  0.0010  0.0073  0.1358  0.0324  0.0005  0.0353 </r>
        <r>  0.0029  0.0057  0.0175  0.0008  0.0076  0.1320  0.0297  0.0007  0.0398 </r>
       </set>
      </set>
      <set comment="kpoint 44">
       <set comment="band 1">
        <r>  0.1948  0.0006  0.0027  0.0023  0.0001  0.0000  0.0000  0.0003  0.0000 </r>
        <r>  0.2346  0.0015  0.0021  0.0006  0.0001  0.0001  0.0000  0.0002  0.0000 </r>
        <r>  0.1948  0.0014  0.0027  0.0015  0.0000  0.0002  0.0000  0.0001  0.0001 </r>
       </set>
       <set comment="band 2">
        <r>  0.2306  0.0002  0.0057  0.0021  0.0001  0.0001  0.0000  0.0004  0.0000 </r>
        <r>  0.1743  0.0008  0.0079  0.0018  0.0000  0.0002  0.0000  0.0001  0.0001 </r>
        <r>  0.2306  0.0013  0.0057  0.0010  0.0001  0.0002  0.0000  0.0003  0.0000 </r>
       </set>
       <set comment="band 3">
        <r>  0.2394  0.0005  0.0018  0.0076  0.0000  0.0001  0.0000  0.0000  0.0000 </r>
        <r>  0.2547  0.0013  0.0016  0.0034  0.0000  0.0002  0.0000  0.0001  0.0000 </r>
        <r>  0.2394  0.0042  0.0018  0.0040  0.0000  0.0000  0.0000  0.0001  0.0000 </r>
       </set>
       <set comment="band 4">
        <r>  0.0069  0.0447  0.1080  0.0215  0.0012  0.0000  0.0001  0.0025  0.0001 </r>
        <r>  0.0012  0.0308  0.0224  0.0516  0.0007  0.0008  0.0000  0.0011  0.0009 </r>
        <r>  0.0069  0.0011  0.1080  0.0651  0.0007  0.0016  0.0001  0.0009  0.0007 </r>
       </set>
       <set comment="band 5">
        <r>  0.0131  0.0087  0.0245  0.0778  0.0007  0.0004  0.0005  0.0019  0.0001 </r>
        <r>  0.0180  0.0732  0.1085  0.0292  0.0013  0.0007  0.0001  0.0005  0.0004 </r>
        <r>  0.0131  0.0625  0.0245  0.0240  0.0003  0.0013  0.0005  0.0009  0.0005 </r>
       </set>
       <set comment="band 6">
        <r>  0.0057  0.0126  0.0254  0.1087  0.0004  0.0005  0.0001  0.0001  0.0014 </r>
        <r>  0.0317  0.0493  0.0820  0.0200  0.0002  0.0018  0.0000  0.0007  0.0003 </r>
        <r>  0.0057  0.1113  0.0254  0.0100  0.0015  0.0000  0.0001  0.0005  0.0003 </r>
       </set>
       <set comment="band 7">
        <r>  0.0102  0.0354  0.0512  0.0383  0.0004  0.0003  0.0005  0.0012  0.0000 </r>
        <r>  0.0018  0.0483  0.0222  0.1257  0.0001  0.0008  0.0009  0.0007  0.0001 </r>
        <r>  0.0102  0.0616  0.0512  0.0121  0.0001  0.0005  0.0005  0.0010  0.0003 </r>
       </set>
       <set comment="band 8">
        <r>  0.0083  0.1178  0.0370  0.0007  0.0006  0.0015  0.0006  0.0006  0.0003 </r>
        <r>  0.0121  0.0807  0.0053  0.0377  0.0021  0.0001  0.0002  0.0001  0.0007 </r>
        <r>  0.0083  0.0237  0.0370  0.0948  0.0002  0.0017  0.0006  0.0005  0.0007 </r>
       </set>
       <set comment="band 9">
        <r>  0.0209  0.1391  0.0201  0.0137  0.0008  0.0009  0.0000  0.0005  0.0002 </r>
        <r>  0.0000  0.0218  0.0339  0.0487  0.0002  0.0007  0.0009  0.0003  0.0002 </r>
        <r>  0.0209  0.0277  0.0201  0.1251  0.0005  0.0011  0.0000  0.0002  0.0005 </r>
       </set>
       <set comment="band 10">
        <r>  0.0036  0.0897  0.0073  0.0764  0.0003  0.0001  0.0020  0.0015  0.0024 </r>
        <r>  0.0087  0.1444  0.0001  0.0536  0.0002  0.0013  0.0040  0.0029  0.0002 </r>
        <r>  0.0036  0.1507  0.0073  0.0153  0.0014  0.0015  0.0020  0.0002  0.0012 </r>
       </set>
       <set comment="band 11">
        <r>  0.0062  0.0071  0.1103  0.0668  0.0034  0.0007  0.0025  0.0001  0.0002 </r>
        <r>  0.0011  0.0071  0.1351  0.0198  0.0005  0.0066  0.0000  0.0023  0.0014 </r>
        <r>  0.0062  0.0337  0.1103  0.0402  0.0018  0.0003  0.0025  0.0005  0.0019 </r>
       </set>
       <set comment="band 12">
        <r>  0.0035  0.0371  0.0940  0.0790  0.0011  0.0010  0.0011  0.0025  0.0008 </r>
        <r>  0.0062  0.0343  0.0405  0.0941  0.0013  0.0002  0.0044  0.0003  0.0011 </r>
        <r>  0.0035  0.0228  0.0940  0.0934  0.0009  0.0010  0.0011  0.0025  0.0011 </r>
       </set>
       <set comment="band 13">
        <r>  0.0001  0.0034  0.0044  0.0020  0.0177  0.0010  0.0024  0.0154  0.0143 </r>
        <r>  0.0003  0.0086  0.0422  0.0242  0.0031  0.0088  0.0057  0.0054  0.0010 </r>
        <r>  0.0001  0.0004  0.0044  0.0050  0.0287  0.0147  0.0024  0.0018  0.0033 </r>
       </set>
       <set comment="band 14">
        <r>  0.0007  0.0062  0.0061  0.0066  0.0022  0.0074  0.0404  0.0013  0.0064 </r>
        <r>  0.0002  0.0008  0.0001  0.0008  0.0191  0.0005  0.0463  0.0005  0.0084 </r>
        <r>  0.0007  0.0109  0.0061  0.0019  0.0030  0.0016  0.0404  0.0071  0.0056 </r>
       </set>
       <set comment="band 15">
        <r>  0.0026  0.0110  0.0112  0.0106  0.0095  0.0052  0.0228  0.0122  0.0022 </r>
        <r>  0.0004  0.0002  0.0057  0.0002  0.0116  0.0115  0.0002  0.0262  0.0120 </r>
        <r>  0.0026  0.0019  0.0112  0.0197  0.0055  0.0090  0.0228  0.0085  0.0062 </r>
       </set>
       <set comment="band 16">
        <r>  0.0044  0.0055  0.0048  0.0044  0.0124  0.0254  0.0038  0.0010  0.0218 </r>
        <r>  0.0002  0.0126  0.0019  0.0057  0.0145  0.0042  0.0078  0.0030  0.0395 </r>
        <r>  0.0044  0.0023  0.0048  0.0075  0.0066  0.0112  0.0038  0.0151  0.0277 </r>
       </set>
       <set comment="band 17">
        <r>  0.0258  0.0033  0.0122  0.0081  0.0036  0.0067  0.0041  0.0229  0.0130 </r>
        <r>  0.0471  0.0029  0.0243  0.0024  0.0003  0.0008  0.0009  0.0021  0.0001 </r>
        <r>  0.0258  0.0048  0.0122  0.0065  0.0166  0.0081  0.0041  0.0215  0.0001 </r>
       </set>
       <set comment="band 18">
        <r>  0.0003  0.0027  0.0005  0.0008  0.0211  0.0509  0.0007  0.0061  0.0226 </r>
        <r>  0.0002  0.0082  0.0011  0.0041  0.0057  0.0496  0.0013  0.0199  0.0105 </r>
        <r>  0.0003  0.0026  0.0005  0.0010  0.0064  0.0316  0.0007  0.0255  0.0373 </r>
       </set>
       <set comment="band 19">
        <r>  0.0304  0.0000  0.0033  0.0043  0.0191  0.0058  0.0042  0.0145  0.0053 </r>
        <r>  0.0055  0.0006  0.0000  0.0016  0.0442  0.0140  0.0029  0.0356  0.0216 </r>
        <r>  0.0304  0.0030  0.0033  0.0013  0.0157  0.0047  0.0042  0.0156  0.0086 </r>
       </set>
       <set comment="band 20">
        <r>  0.0003  0.0040  0.0051  0.0003  0.0181  0.0163  0.0023  0.0149  0.0099 </r>
        <r>  0.0019  0.0026  0.0038  0.0037  0.0260  0.0289  0.0064  0.0149  0.0207 </r>
        <r>  0.0003  0.0003  0.0051  0.0039  0.0170  0.0192  0.0023  0.0120  0.0111 </r>
       </set>
       <set comment="band 21">
        <r>  0.0042  0.0080  0.0121  0.0051  0.0341  0.0032  0.0170  0.0117  0.0214 </r>
        <r>  0.0149  0.0026  0.0281  0.0073  0.0100  0.0039  0.0428  0.0023  0.0035 </r>
        <r>  0.0042  0.0012  0.0121  0.0119  0.0333  0.0148  0.0170  0.0001  0.0222 </r>
       </set>
       <set comment="band 22">
        <r>  0.0014  0.0038  0.0051  0.0056  0.0171  0.0154  0.0052  0.0064  0.0271 </r>
        <r>  0.0003  0.0155  0.0027  0.0129  0.0033  0.0289  0.0040  0.0097  0.0026 </r>
        <r>  0.0014  0.0088  0.0051  0.0006  0.0104  0.0161  0.0052  0.0056  0.0339 </r>
       </set>
       <set comment="band 23">
        <r>  0.0058  0.0007  0.0310  0.0036  0.0013  0.0237  0.0348  0.0500  0.0139 </r>
        <r>  0.0024  0.0002  0.0074  0.0003  0.0016  0.0049  0.0189  0.0139  0.0005 </r>
        <r>  0.0058  0.0036  0.0310  0.0007  0.0143  0.0152  0.0348  0.0584  0.0009 </r>
       </set>
       <set comment="band 24">
        <r>  0.0016  0.0062  0.0005  0.0073  0.0103  0.0208  0.0082  0.0176  0.0283 </r>
        <r>  0.0045  0.0032  0.0029  0.0079  0.0177  0.0247  0.0272  0.0398  0.0478 </r>
        <r>  0.0016  0.0115  0.0005  0.0019  0.0103  0.0349  0.0082  0.0035  0.0282 </r>
       </set>
       <set comment="band 25">
        <r>  0.0005  0.0267  0.0094  0.0004  0.0199  0.0125  0.0074  0.0718  0.0222 </r>
        <r>  0.0001  0.0165  0.0064  0.0127  0.0244  0.0229  0.0112  0.0399  0.0731 </r>
        <r>  0.0005  0.0051  0.0094  0.0220  0.0140  0.0546  0.0074  0.0297  0.0281 </r>
       </set>
       <set comment="band 26">
        <r>  0.0004  0.0021  0.0011  0.0356  0.0004  0.0802  0.0386  0.0053  0.0105 </r>
        <r>  0.0021  0.0137  0.0013  0.0272  0.0007  0.0353  0.0253  0.0124  0.0006 </r>
        <r>  0.0004  0.0248  0.0011  0.0129  0.0077  0.0365  0.0386  0.0490  0.0033 </r>
       </set>
       <set comment="band 27">
        <r>  0.0043  0.0050  0.0121  0.0331  0.0002  0.0041  0.0590  0.0173  0.0255 </r>
        <r>  0.0005  0.0049  0.0074  0.0113  0.0281  0.0122  0.0311  0.0328  0.0101 </r>
        <r>  0.0043  0.0163  0.0121  0.0218  0.0189  0.0107  0.0590  0.0107  0.0068 </r>
       </set>
       <set comment="band 28">
        <r>  0.0040  0.0152  0.0016  0.0067  0.0170  0.0077  0.0025  0.0032  0.0306 </r>
        <r>  0.0007  0.0037  0.0101  0.0013  0.0110  0.0034  0.0021  0.0095  0.0326 </r>
        <r>  0.0040  0.0086  0.0016  0.0132  0.0116  0.0048  0.0025  0.0061  0.0359 </r>
       </set>
       <set comment="band 29">
        <r>  0.0070  0.0028  0.0008  0.0033  0.0213  0.0027  0.0222  0.0011  0.0440 </r>
        <r>  0.0040  0.0059  0.0012  0.0069  0.0079  0.0015  0.0001  0.0010  0.0235 </r>
        <r>  0.0070  0.0044  0.0008  0.0017  0.0303  0.0009  0.0223  0.0030  0.0350 </r>
       </set>
       <set comment="band 30">
        <r>  0.0099  0.0173  0.0034  0.0002  0.0196  0.0129  0.0168  0.0202  0.0261 </r>
        <r>  0.0071  0.0054  0.0008  0.0040  0.0130  0.0310  0.0076  0.0392  0.0192 </r>
        <r>  0.0100  0.0035  0.0034  0.0141  0.0146  0.0203  0.0168  0.0127  0.0312 </r>
       </set>
       <set comment="band 31">
        <r>  0.0010  0.0010  0.0069  0.0015  0.0038  0.0088  0.0439  0.0344  0.0020 </r>
        <r>  0.0027  0.0069  0.0026  0.0033  0.0263  0.0276  0.0630  0.0098  0.0104 </r>
        <r>  0.0016  0.0013  0.0063  0.0011  0.0054  0.0280  0.0449  0.0174  0.0012 </r>
       </set>
       <set comment="band 32">
        <r>  0.0110  0.0023  0.0082  0.0014  0.0815  0.0314  0.0129  0.0073  0.0052 </r>
        <r>  0.0036  0.0042  0.0028  0.0115  0.0163  0.0065  0.0681  0.0216  0.0074 </r>
        <r>  0.0105  0.0019  0.0088  0.0019  0.0405  0.0047  0.0107  0.0311  0.0450 </r>
       </set>
      </set>
      <set comment="kpoint 45">
       <set comment="band 1">
        <r>  0.2284  0.0018  0.0028  0.0012  0.0000  0.0000  0.0000  0.0001  0.0000 </r>
        <r>  0.1969  0.0027  0.0027  0.0005  0.0000  0.0002  0.0000  0.0001  0.0000 </r>
        <r>  0.1969  0.0027  0.0027  0.0005  0.0000  0.0002  0.0000  0.0001  0.0000 </r>
       </set>
       <set comment="band 2">
        <r>  0.1868  0.0002  0.0070  0.0013  0.0001  0.0003  0.0000  0.0002  0.0001 </r>
        <r>  0.2254  0.0012  0.0055  0.0005  0.0000  0.0004  0.0000  0.0001  0.0001 </r>
        <r>  0.2254  0.0012  0.0055  0.0005  0.0000  0.0004  0.0000  0.0001  0.0001 </r>
       </set>
       <set comment="band 3">
        <r>  0.2503  0.0006  0.0004  0.0013  0.0000  0.0003  0.0000  0.0000  0.0001 </r>
        <r>  0.2518  0.0072  0.0015  0.0004  0.0000  0.0003  0.0000  0.0000  0.0001 </r>
        <r>  0.2518  0.0072  0.0015  0.0004  0.0000  0.0003  0.0000  0.0000  0.0001 </r>
       </set>
       <set comment="band 4">
        <r>  0.0121  0.1198  0.0002  0.0033  0.0005  0.0001  0.0004  0.0003  0.0005 </r>
        <r>  0.0044  0.0628  0.0789  0.0032  0.0000  0.0008  0.0001  0.0003  0.0010 </r>
        <r>  0.0044  0.0628  0.0789  0.0032  0.0000  0.0008  0.0001  0.0003  0.0010 </r>
       </set>
       <set comment="band 5">
        <r>  0.0083  0.0025  0.1597  0.0001  0.0005  0.0002  0.0000  0.0029  0.0001 </r>
        <r>  0.0028  0.0609  0.0606  0.0252  0.0005  0.0001  0.0004  0.0003  0.0007 </r>
        <r>  0.0028  0.0609  0.0606  0.0252  0.0005  0.0001  0.0004  0.0003  0.0007 </r>
       </set>
       <set comment="band 6">
        <r>  0.0145  0.0004  0.0021  0.2038  0.0000  0.0004  0.0002  0.0003  0.0001 </r>
        <r>  0.0006  0.0119  0.0177  0.1052  0.0003  0.0006  0.0000  0.0008  0.0004 </r>
        <r>  0.0006  0.0119  0.0177  0.1052  0.0003  0.0006  0.0000  0.0008  0.0004 </r>
       </set>
       <set comment="band 7">
        <r>  0.0140  0.0007  0.0626  0.0335  0.0006  0.0000  0.0000  0.0007  0.0026 </r>
        <r>  0.0139  0.0496  0.0242  0.0936  0.0005  0.0009  0.0006  0.0018  0.0007 </r>
        <r>  0.0139  0.0497  0.0242  0.0936  0.0005  0.0009  0.0006  0.0018  0.0007 </r>
       </set>
       <set comment="band 8">
        <r>  0.0108  0.0016  0.0403  0.0702  0.0002  0.0000  0.0003  0.0018  0.0016 </r>
        <r>  0.0021  0.0249  0.0445  0.1052  0.0007  0.0017  0.0001  0.0016  0.0006 </r>
        <r>  0.0021  0.0249  0.0444  0.1051  0.0007  0.0017  0.0001  0.0016  0.0006 </r>
       </set>
       <set comment="band 9">
        <r>  0.0009  0.2284  0.0177  0.0080  0.0000  0.0005  0.0009  0.0000  0.0009 </r>
        <r>  0.0240  0.0753  0.0380  0.0091  0.0002  0.0024  0.0008  0.0003  0.0007 </r>
        <r>  0.0240  0.0753  0.0380  0.0091  0.0002  0.0024  0.0008  0.0003  0.0007 </r>
       </set>
       <set comment="band 10">
        <r>  0.0052  0.0562  0.0173  0.0924  0.0014  0.0003  0.0033  0.0075  0.0008 </r>
        <r>  0.0158  0.0230  0.0077  0.1179  0.0017  0.0005  0.0019  0.0009  0.0024 </r>
        <r>  0.0158  0.0230  0.0077  0.1179  0.0017  0.0005  0.0019  0.0009  0.0024 </r>
       </set>
       <set comment="band 11">
        <r>  0.0200  0.0245  0.0922  0.0398  0.0008  0.0014  0.0000  0.0026  0.0019 </r>
        <r>  0.0147  0.0610  0.0905  0.0171  0.0014  0.0003  0.0019  0.0025  0.0009 </r>
        <r>  0.0147  0.0610  0.0905  0.0171  0.0014  0.0003  0.0019  0.0025  0.0009 </r>
       </set>
       <set comment="band 12">
        <r>  0.0000  0.0283  0.0445  0.0216  0.0029  0.0067  0.0018  0.0003  0.0000 </r>
        <r>  0.0025  0.0950  0.1067  0.0097  0.0008  0.0065  0.0016  0.0002  0.0011 </r>
        <r>  0.0025  0.0950  0.1067  0.0097  0.0008  0.0065  0.0016  0.0002  0.0011 </r>
       </set>
       <set comment="band 13">
        <r>  0.0000  0.0042  0.0035  0.0111  0.0018  0.0099  0.0149  0.0000  0.0175 </r>
        <r>  0.0015  0.0008  0.0023  0.0111  0.0028  0.0063  0.0146  0.0031  0.0189 </r>
        <r>  0.0015  0.0008  0.0023  0.0111  0.0028  0.0063  0.0146  0.0031  0.0189 </r>
       </set>
       <set comment="band 14">
        <r>  0.0049  0.0128  0.0203  0.0055  0.0001  0.0021  0.0397  0.0069  0.0000 </r>
        <r>  0.0001  0.0101  0.0030  0.0008  0.0037  0.0043  0.0349  0.0031  0.0184 </r>
        <r>  0.0001  0.0101  0.0030  0.0008  0.0037  0.0043  0.0349  0.0031  0.0184 </r>
       </set>
       <set comment="band 15">
        <r>  0.0076  0.0197  0.0014  0.0013  0.0327  0.0204  0.0058  0.0002  0.0145 </r>
        <r>  0.0045  0.0044  0.0017  0.0072  0.0217  0.0149  0.0021  0.0218  0.0048 </r>
        <r>  0.0045  0.0044  0.0017  0.0072  0.0217  0.0149  0.0021  0.0218  0.0048 </r>
       </set>
       <set comment="band 16">
        <r>  0.0010  0.0108  0.0694  0.0032  0.0198  0.0036  0.0182  0.0004  0.0108 </r>
        <r>  0.0012  0.0028  0.0206  0.0012  0.0084  0.0141  0.0160  0.0154  0.0041 </r>
        <r>  0.0012  0.0028  0.0206  0.0012  0.0084  0.0141  0.0160  0.0154  0.0041 </r>
       </set>
       <set comment="band 17">
        <r>  0.0010  0.0138  0.0089  0.0146  0.0020  0.0292  0.0002  0.0138  0.0073 </r>
        <r>  0.0043  0.0368  0.0091  0.0023  0.0167  0.0119  0.0201  0.0054  0.0049 </r>
        <r>  0.0043  0.0368  0.0091  0.0023  0.0167  0.0119  0.0201  0.0054  0.0049 </r>
       </set>
       <set comment="band 18">
        <r>  0.0116  0.0019  0.0000  0.0009  0.0107  0.0175  0.0046  0.0034  0.0389 </r>
        <r>  0.0165  0.0041  0.0185  0.0031  0.0062  0.0124  0.0044  0.0108  0.0257 </r>
        <r>  0.0165  0.0041  0.0185  0.0031  0.0062  0.0124  0.0044  0.0107  0.0256 </r>
       </set>
       <set comment="band 19">
        <r>  0.0002  0.0012  0.0009  0.0069  0.0377  0.0016  0.0002  0.0457  0.0037 </r>
        <r>  0.0008  0.0003  0.0013  0.0055  0.0480  0.0034  0.0008  0.0170  0.0035 </r>
        <r>  0.0008  0.0003  0.0014  0.0055  0.0480  0.0034  0.0008  0.0170  0.0035 </r>
       </set>
       <set comment="band 20">
        <r>  0.0228  0.0089  0.0214  0.0061  0.0009  0.0004  0.0106  0.0285  0.0313 </r>
        <r>  0.0198  0.0101  0.0105  0.0156  0.0181  0.0049  0.0025  0.0075  0.0289 </r>
        <r>  0.0198  0.0101  0.0105  0.0156  0.0181  0.0049  0.0025  0.0075  0.0289 </r>
       </set>
       <set comment="band 21">
        <r>  0.0009  0.0057  0.0053  0.0239  0.0059  0.0026  0.0097  0.0794  0.0060 </r>
        <r>  0.0025  0.0011  0.0046  0.0083  0.0125  0.0003  0.0008  0.0650  0.0253 </r>
        <r>  0.0025  0.0011  0.0046  0.0083  0.0125  0.0003  0.0008  0.0650  0.0253 </r>
       </set>
       <set comment="band 22">
        <r>  0.0010  0.0071  0.0044  0.0093  0.0082  0.0166  0.0020  0.0000  0.0039 </r>
        <r>  0.0001  0.0002  0.0033  0.0068  0.0143  0.0024  0.0008  0.0105  0.0113 </r>
        <r>  0.0001  0.0002  0.0033  0.0068  0.0143  0.0024  0.0008  0.0105  0.0113 </r>
       </set>
       <set comment="band 23">
        <r>  0.0006  0.0018  0.0028  0.0131  0.0493  0.0006  0.0055  0.0422  0.0031 </r>
        <r>  0.0121  0.0070  0.0140  0.0106  0.0097  0.0578  0.0161  0.0330  0.0017 </r>
        <r>  0.0121  0.0070  0.0140  0.0106  0.0097  0.0578  0.0161  0.0330  0.0017 </r>
       </set>
       <set comment="band 24">
        <r>  0.0305  0.0086  0.0018  0.0000  0.0023  0.0524  0.0106  0.0044  0.0109 </r>
        <r>  0.0103  0.0102  0.0164  0.0077  0.0078  0.0366  0.0054  0.0294  0.0005 </r>
        <r>  0.0103  0.0102  0.0164  0.0077  0.0078  0.0366  0.0054  0.0294  0.0005 </r>
       </set>
       <set comment="band 25">
        <r>  0.0049  0.0000  0.0039  0.0039  0.0089  0.0409  0.0047  0.0054  0.0425 </r>
        <r>  0.0002  0.0310  0.0075  0.0024  0.0073  0.0050  0.1146  0.0064  0.0086 </r>
        <r>  0.0002  0.0310  0.0075  0.0024  0.0073  0.0050  0.1146  0.0064  0.0086 </r>
       </set>
       <set comment="band 26">
        <r>  0.0007  0.0125  0.0058  0.0009  0.0282  0.0215  0.1122  0.0002  0.0010 </r>
        <r>  0.0005  0.0064  0.0149  0.0053  0.0090  0.0450  0.0166  0.0021  0.0275 </r>
        <r>  0.0005  0.0064  0.0149  0.0053  0.0089  0.0450  0.0166  0.0022  0.0275 </r>
       </set>
       <set comment="band 27">
        <r>  0.0022  0.0323  0.0074  0.0027  0.1041  0.0018  0.0275  0.0189  0.0118 </r>
        <r>  0.0003  0.0008  0.0000  0.0008  0.0912  0.0052  0.0095  0.0427  0.0053 </r>
        <r>  0.0003  0.0008  0.0000  0.0008  0.0912  0.0052  0.0095  0.0427  0.0053 </r>
       </set>
       <set comment="band 28">
        <r>  0.0033  0.0091  0.0037  0.0064  0.0001  0.0592  0.0163  0.0009  0.0003 </r>
        <r>  0.0001  0.0111  0.0004  0.0133  0.0394  0.0138  0.0262  0.0061  0.0025 </r>
        <r>  0.0001  0.0111  0.0004  0.0133  0.0394  0.0139  0.0263  0.0061  0.0025 </r>
       </set>
       <set comment="band 29">
        <r>  0.0008  0.0034  0.0049  0.0007  0.0215  0.0277  0.0031  0.0072  0.0103 </r>
        <r>  0.0129  0.0188  0.0001  0.0022  0.0110  0.0353  0.0205  0.0028  0.0256 </r>
        <r>  0.0130  0.0188  0.0001  0.0022  0.0110  0.0351  0.0204  0.0028  0.0257 </r>
       </set>
       <set comment="band 30">
        <r>  0.0004  0.0088  0.0007  0.0069  0.0452  0.0011  0.0001  0.0009  0.0018 </r>
        <r>  0.0077  0.0038  0.0067  0.0055  0.0288  0.0184  0.0027  0.0097  0.0132 </r>
        <r>  0.0077  0.0038  0.0067  0.0055  0.0287  0.0184  0.0028  0.0097  0.0132 </r>
       </set>
       <set comment="band 31">
        <r>  0.0142  0.0240  0.0025  0.0010  0.0007  0.0215  0.0084  0.0015  0.0329 </r>
        <r>  0.0014  0.0081  0.0174  0.0099  0.0231  0.0564  0.0008  0.0212  0.0127 </r>
        <r>  0.0013  0.0081  0.0171  0.0099  0.0233  0.0554  0.0007  0.0215  0.0136 </r>
       </set>
       <set comment="band 32">
        <r>  0.0010  0.0000  0.0034  0.0001  0.0002  0.1398  0.0321  0.0025  0.0378 </r>
        <r>  0.0169  0.0082  0.0147  0.0022  0.0004  0.1177  0.0132  0.0049  0.0480 </r>
        <r>  0.0162  0.0089  0.0151  0.0021  0.0004  0.1175  0.0135  0.0053  0.0459 </r>
       </set>
      </set>
      <set comment="kpoint 46">
       <set comment="band 1">
        <r>  0.1823  0.0006  0.0022  0.0031  0.0001  0.0000  0.0000  0.0004  0.0000 </r>
        <r>  0.2784  0.0019  0.0012  0.0006  0.0002  0.0001  0.0000  0.0003  0.0001 </r>
        <r>  0.1823  0.0020  0.0022  0.0017  0.0000  0.0003  0.0000  0.0001  0.0001 </r>
       </set>
       <set comment="band 2">
        <r>  0.2676  0.0005  0.0034  0.0033  0.0001  0.0002  0.0000  0.0005  0.0000 </r>
        <r>  0.1201  0.0012  0.0080  0.0034  0.0000  0.0003  0.0000  0.0001  0.0001 </r>
        <r>  0.2676  0.0017  0.0034  0.0020  0.0001  0.0002  0.0000  0.0005  0.0000 </r>
       </set>
       <set comment="band 3">
        <r>  0.2121  0.0010  0.0020  0.0094  0.0000  0.0001  0.0000  0.0000  0.0000 </r>
        <r>  0.2607  0.0010  0.0006  0.0026  0.0000  0.0001  0.0000  0.0002  0.0000 </r>
        <r>  0.2121  0.0047  0.0020  0.0057  0.0000  0.0000  0.0000  0.0000  0.0000 </r>
       </set>
       <set comment="band 4">
        <r>  0.0079  0.0263  0.0722  0.0433  0.0005  0.0000  0.0000  0.0011  0.0001 </r>
        <r>  0.0015  0.0311  0.0011  0.0789  0.0004  0.0003  0.0000  0.0007  0.0003 </r>
        <r>  0.0079  0.0105  0.0722  0.0591  0.0004  0.0007  0.0000  0.0004  0.0002 </r>
       </set>
       <set comment="band 5">
        <r>  0.0130  0.0228  0.0446  0.0637  0.0013  0.0003  0.0002  0.0013  0.0001 </r>
        <r>  0.0239  0.0256  0.1308  0.0095  0.0010  0.0014  0.0000  0.0005  0.0005 </r>
        <r>  0.0130  0.0581  0.0446  0.0284  0.0007  0.0007  0.0002  0.0008  0.0007 </r>
       </set>
       <set comment="band 6">
        <r>  0.0027  0.0381  0.0345  0.0598  0.0004  0.0007  0.0001  0.0001  0.0009 </r>
        <r>  0.0265  0.1027  0.0474  0.0351  0.0004  0.0013  0.0000  0.0004  0.0004 </r>
        <r>  0.0027  0.0920  0.0345  0.0059  0.0010  0.0003  0.0001  0.0005  0.0002 </r>
       </set>
       <set comment="band 7">
        <r>  0.0085  0.0986  0.0503  0.0015  0.0011  0.0015  0.0003  0.0013  0.0001 </r>
        <r>  0.0164  0.0589  0.0412  0.0216  0.0025  0.0002  0.0002  0.0001  0.0008 </r>
        <r>  0.0085  0.0234  0.0503  0.0768  0.0004  0.0024  0.0003  0.0004  0.0008 </r>
       </set>
       <set comment="band 8">
        <r>  0.0038  0.0888  0.0475  0.0259  0.0005  0.0008  0.0006  0.0028  0.0001 </r>
        <r>  0.0002  0.0353  0.0556  0.0405  0.0001  0.0011  0.0003  0.0009  0.0001 </r>
        <r>  0.0038  0.0684  0.0475  0.0462  0.0003  0.0023  0.0006  0.0013  0.0002 </r>
       </set>
       <set comment="band 9">
        <r>  0.0329  0.0648  0.0176  0.0449  0.0005  0.0013  0.0006  0.0010  0.0001 </r>
        <r>  0.0019  0.0467  0.0052  0.1163  0.0001  0.0008  0.0011  0.0011  0.0001 </r>
        <r>  0.0329  0.0192  0.0176  0.0905  0.0004  0.0008  0.0006  0.0015  0.0002 </r>
       </set>
       <set comment="band 10">
        <r>  0.0038  0.0845  0.0042  0.0912  0.0009  0.0004  0.0031  0.0009  0.0003 </r>
        <r>  0.0106  0.1315  0.0058  0.0489  0.0008  0.0012  0.0070  0.0025  0.0003 </r>
        <r>  0.0038  0.1630  0.0042  0.0127  0.0004  0.0008  0.0031  0.0005  0.0008 </r>
       </set>
       <set comment="band 11">
        <r>  0.0032  0.0069  0.1579  0.0408  0.0032  0.0017  0.0008  0.0012  0.0008 </r>
        <r>  0.0010  0.0171  0.0581  0.0513  0.0003  0.0083  0.0007  0.0038  0.0007 </r>
        <r>  0.0032  0.0180  0.1579  0.0297  0.0027  0.0002  0.0008  0.0027  0.0013 </r>
       </set>
       <set comment="band 12">
        <r>  0.0022  0.0416  0.0707  0.0954  0.0005  0.0009  0.0023  0.0043  0.0001 </r>
        <r>  0.0002  0.0237  0.1111  0.0411  0.0003  0.0019  0.0015  0.0043  0.0005 </r>
        <r>  0.0022  0.0335  0.0707  0.1035  0.0002  0.0021  0.0023  0.0031  0.0004 </r>
       </set>
       <set comment="band 13">
        <r>  0.0002  0.0060  0.0059  0.0011  0.0143  0.0005  0.0097  0.0148  0.0124 </r>
        <r>  0.0001  0.0148  0.0568  0.0337  0.0006  0.0052  0.0053  0.0021  0.0005 </r>
        <r>  0.0002  0.0044  0.0060  0.0027  0.0239  0.0124  0.0097  0.0028  0.0028 </r>
       </set>
       <set comment="band 14">
        <r>  0.0006  0.0287  0.0068  0.0003  0.0080  0.0108  0.0098  0.0043  0.0018 </r>
        <r>  0.0005  0.0056  0.0015  0.0036  0.0331  0.0066  0.0196  0.0132  0.0112 </r>
        <r>  0.0006  0.0082  0.0068  0.0208  0.0061  0.0043  0.0098  0.0108  0.0036 </r>
       </set>
       <set comment="band 15">
        <r>  0.0019  0.0061  0.0023  0.0344  0.0060  0.0010  0.0454  0.0023  0.0077 </r>
        <r>  0.0005  0.0030  0.0015  0.0023  0.0043  0.0058  0.0192  0.0135  0.0126 </r>
        <r>  0.0019  0.0155  0.0023  0.0249  0.0099  0.0015  0.0454  0.0017  0.0038 </r>
       </set>
       <set comment="band 16">
        <r>  0.0183  0.0014  0.0024  0.0041  0.0114  0.0272  0.0071  0.0046  0.0126 </r>
        <r>  0.0009  0.0162  0.0001  0.0055  0.0180  0.0025  0.0162  0.0072  0.0326 </r>
        <r>  0.0183  0.0049  0.0024  0.0006  0.0053  0.0178  0.0071  0.0140  0.0187 </r>
       </set>
       <set comment="band 17">
        <r>  0.0169  0.0059  0.0004  0.0024  0.0155  0.0330  0.0004  0.0243  0.0119 </r>
        <r>  0.0229  0.0043  0.0033  0.0067  0.0043  0.0358  0.0001  0.0132  0.0106 </r>
        <r>  0.0169  0.0016  0.0004  0.0068  0.0094  0.0440  0.0004  0.0132  0.0180 </r>
       </set>
       <set comment="band 18">
        <r>  0.0073  0.0049  0.0004  0.0036  0.0074  0.0280  0.0026  0.0110  0.0354 </r>
        <r>  0.0273  0.0067  0.0033  0.0200  0.0004  0.0268  0.0027  0.0089  0.0009 </r>
        <r>  0.0073  0.0005  0.0004  0.0080  0.0183  0.0095  0.0026  0.0295  0.0245 </r>
       </set>
       <set comment="band 19">
        <r>  0.0210  0.0047  0.0019  0.0140  0.0232  0.0206  0.0099  0.0153  0.0064 </r>
        <r>  0.0020  0.0099  0.0085  0.0256  0.0309  0.0157  0.0000  0.0356  0.0260 </r>
        <r>  0.0210  0.0065  0.0019  0.0122  0.0060  0.0021  0.0099  0.0338  0.0235 </r>
       </set>
       <set comment="band 20">
        <r>  0.0022  0.0125  0.0078  0.0072  0.0222  0.0095  0.0087  0.0065  0.0326 </r>
        <r>  0.0081  0.0009  0.0103  0.0017  0.0134  0.0093  0.0570  0.0122  0.0086 </r>
        <r>  0.0022  0.0005  0.0078  0.0192  0.0177  0.0138  0.0087  0.0021  0.0371 </r>
       </set>
       <set comment="band 21">
        <r>  0.0024  0.0007  0.0032  0.0049  0.0247  0.0183  0.0146  0.0041  0.0311 </r>
        <r>  0.0057  0.0046  0.0069  0.0015  0.0130  0.0326  0.0100  0.0112  0.0383 </r>
        <r>  0.0024  0.0044  0.0032  0.0012  0.0296  0.0115  0.0146  0.0109  0.0262 </r>
       </set>
       <set comment="band 22">
        <r>  0.0116  0.0043  0.0015  0.0251  0.0083  0.0100  0.0573  0.0113  0.0050 </r>
        <r>  0.0026  0.0083  0.0007  0.0126  0.0058  0.0055  0.0235  0.0086  0.0114 </r>
        <r>  0.0116  0.0119  0.0015  0.0174  0.0100  0.0018  0.0573  0.0195  0.0033 </r>
       </set>
       <set comment="band 23">
        <r>  0.0013  0.0018  0.0000  0.0037  0.0000  0.0007  0.0267  0.0003  0.0609 </r>
        <r>  0.0043  0.0034  0.0017  0.0103  0.0411  0.0016  0.0528  0.0005  0.0416 </r>
        <r>  0.0013  0.0046  0.0000  0.0008  0.0446  0.0007  0.0267  0.0003  0.0164 </r>
       </set>
       <set comment="band 24">
        <r>  0.0019  0.0021  0.0043  0.0146  0.0224  0.0061  0.0259  0.0167  0.0523 </r>
        <r>  0.0001  0.0059  0.0024  0.0071  0.0283  0.0077  0.0127  0.0039  0.0662 </r>
        <r>  0.0019  0.0083  0.0043  0.0083  0.0260  0.0228  0.0259  0.0001  0.0486 </r>
       </set>
       <set comment="band 25">
        <r>  0.0003  0.0049  0.0037  0.0027  0.0341  0.0019  0.0312  0.0171  0.0095 </r>
        <r>  0.0061  0.0067  0.0002  0.0164  0.0050  0.0102  0.0137  0.0129  0.0021 </r>
        <r>  0.0003  0.0023  0.0037  0.0053  0.0012  0.0182  0.0312  0.0008  0.0424 </r>
       </set>
       <set comment="band 26">
        <r>  0.0005  0.0135  0.0021  0.0001  0.0127  0.0065  0.0001  0.0061  0.0025 </r>
        <r>  0.0021  0.0068  0.0099  0.0066  0.0215  0.0079  0.0173  0.0088  0.0088 </r>
        <r>  0.0005  0.0041  0.0021  0.0095  0.0079  0.0020  0.0001  0.0106  0.0073 </r>
       </set>
       <set comment="band 27">
        <r>  0.0032  0.0011  0.0404  0.0040  0.0115  0.0108  0.0154  0.0728  0.0019 </r>
        <r>  0.0000  0.0026  0.0085  0.0055  0.0035  0.0035  0.0029  0.0094  0.0036 </r>
        <r>  0.0032  0.0018  0.0404  0.0033  0.0082  0.0337  0.0154  0.0499  0.0052 </r>
       </set>
       <set comment="band 28">
        <r>  0.0019  0.0156  0.0040  0.0074  0.0052  0.0426  0.0036  0.0118  0.0107 </r>
        <r>  0.0022  0.0060  0.0014  0.0024  0.0061  0.0183  0.0000  0.0434  0.0134 </r>
        <r>  0.0019  0.0171  0.0040  0.0060  0.0064  0.0374  0.0036  0.0171  0.0095 </r>
       </set>
       <set comment="band 29">
        <r>  0.0008  0.0242  0.0052  0.0079  0.0037  0.0481  0.0024  0.0419  0.0368 </r>
        <r>  0.0000  0.0188  0.0053  0.0099  0.0241  0.0691  0.0013  0.0476  0.0481 </r>
        <r>  0.0008  0.0221  0.0052  0.0100  0.0250  0.0693  0.0024  0.0207  0.0156 </r>
       </set>
       <set comment="band 30">
        <r>  0.0017  0.0078  0.0084  0.0087  0.0105  0.0330  0.0168  0.0610  0.0472 </r>
        <r>  0.0011  0.0316  0.0023  0.0152  0.0140  0.0779  0.0083  0.0384  0.0230 </r>
        <r>  0.0017  0.0139  0.0084  0.0025  0.0190  0.0722  0.0167  0.0218  0.0388 </r>
       </set>
       <set comment="band 31">
        <r>  0.0003  0.0048  0.0219  0.0113  0.0404  0.0237  0.0029  0.1343  0.0063 </r>
        <r>  0.0030  0.0010  0.0423  0.0007  0.0378  0.0175  0.0000  0.0488  0.0231 </r>
        <r>  0.0003  0.0049  0.0219  0.0111  0.0283  0.0590  0.0029  0.0990  0.0190 </r>
       </set>
       <set comment="band 32">
        <r>  0.0077  0.0103  0.0103  0.0157  0.0045  0.0275  0.0155  0.0185  0.0051 </r>
        <r>  0.0054  0.0029  0.0010  0.0031  0.0038  0.0400  0.0249  0.1161  0.0091 </r>
        <r>  0.0075  0.0065  0.0105  0.0197  0.0063  0.0016  0.0149  0.0448  0.0025 </r>
       </set>
      </set>
      <set comment="kpoint 47">
       <set comment="band 1">
        <r>  0.2858  0.0022  0.0019  0.0018  0.0000  0.0001  0.0000  0.0001  0.0001 </r>
        <r>  0.1775  0.0040  0.0025  0.0007  0.0000  0.0003  0.0000  0.0001  0.0001 </r>
        <r>  0.1776  0.0040  0.0025  0.0007  0.0000  0.0003  0.0000  0.0001  0.0001 </r>
       </set>
       <set comment="band 2">
        <r>  0.1236  0.0018  0.0068  0.0011  0.0001  0.0003  0.0000  0.0003  0.0001 </r>
        <r>  0.2653  0.0020  0.0028  0.0005  0.0000  0.0006  0.0000  0.0001  0.0001 </r>
        <r>  0.2652  0.0020  0.0028  0.0005  0.0000  0.0006  0.0000  0.0001  0.0001 </r>
       </set>
       <set comment="band 3">
        <r>  0.2538  0.0002  0.0000  0.0009  0.0000  0.0005  0.0000  0.0000  0.0001 </r>
        <r>  0.2284  0.0095  0.0015  0.0004  0.0000  0.0003  0.0000  0.0001  0.0001 </r>
        <r>  0.2284  0.0095  0.0015  0.0004  0.0000  0.0003  0.0000  0.0001  0.0001 </r>
       </set>
       <set comment="band 4">
        <r>  0.0056  0.1150  0.0050  0.0001  0.0002  0.0000  0.0002  0.0001  0.0001 </r>
        <r>  0.0032  0.0695  0.0618  0.0004  0.0000  0.0002  0.0001  0.0001  0.0004 </r>
        <r>  0.0031  0.0695  0.0618  0.0004  0.0000  0.0002  0.0001  0.0001  0.0004 </r>
       </set>
       <set comment="band 5">
        <r>  0.0159  0.0089  0.1388  0.0083  0.0005  0.0000  0.0000  0.0027  0.0006 </r>
        <r>  0.0047  0.0469  0.0709  0.0270  0.0003  0.0003  0.0001  0.0003  0.0011 </r>
        <r>  0.0047  0.0469  0.0709  0.0270  0.0003  0.0003  0.0001  0.0003  0.0011 </r>
       </set>
       <set comment="band 6">
        <r>  0.0151  0.0001  0.0123  0.1799  0.0000  0.0003  0.0002  0.0008  0.0002 </r>
        <r>  0.0013  0.0076  0.0196  0.1072  0.0002  0.0005  0.0000  0.0008  0.0005 </r>
        <r>  0.0013  0.0076  0.0196  0.1072  0.0002  0.0005  0.0000  0.0008  0.0005 </r>
       </set>
       <set comment="band 7">
        <r>  0.0178  0.0018  0.0526  0.0529  0.0004  0.0001  0.0000  0.0007  0.0032 </r>
        <r>  0.0141  0.0394  0.0302  0.0840  0.0002  0.0005  0.0003  0.0026  0.0009 </r>
        <r>  0.0141  0.0394  0.0303  0.0840  0.0002  0.0005  0.0003  0.0026  0.0009 </r>
       </set>
       <set comment="band 8">
        <r>  0.0059  0.0015  0.0571  0.0658  0.0001  0.0000  0.0002  0.0017  0.0010 </r>
        <r>  0.0054  0.0204  0.0415  0.0999  0.0003  0.0012  0.0002  0.0021  0.0012 </r>
        <r>  0.0054  0.0204  0.0415  0.0999  0.0003  0.0012  0.0002  0.0021  0.0012 </r>
       </set>
       <set comment="band 9">
        <r>  0.0002  0.2757  0.0318  0.0014  0.0000  0.0000  0.0000  0.0004  0.0000 </r>
        <r>  0.0251  0.0643  0.0325  0.0005  0.0001  0.0063  0.0011  0.0000  0.0001 </r>
        <r>  0.0251  0.0643  0.0325  0.0005  0.0001  0.0063  0.0011  0.0000  0.0001 </r>
       </set>
       <set comment="band 10">
        <r>  0.0130  0.0001  0.0034  0.0190  0.0000  0.0042  0.0065  0.0017  0.0025 </r>
        <r>  0.0168  0.1006  0.0687  0.0445  0.0001  0.0027  0.0031  0.0003  0.0012 </r>
        <r>  0.0168  0.1006  0.0687  0.0445  0.0001  0.0027  0.0031  0.0003  0.0012 </r>
       </set>
       <set comment="band 11">
        <r>  0.0007  0.0028  0.0258  0.1091  0.0018  0.0102  0.0009  0.0058  0.0005 </r>
        <r>  0.0019  0.0145  0.0565  0.0916  0.0007  0.0052  0.0017  0.0007  0.0040 </r>
        <r>  0.0019  0.0145  0.0565  0.0916  0.0007  0.0052  0.0017  0.0007  0.0040 </r>
       </set>
       <set comment="band 12">
        <r>  0.0141  0.0135  0.1197  0.0301  0.0006  0.0011  0.0000  0.0038  0.0021 </r>
        <r>  0.0075  0.0722  0.1022  0.0201  0.0006  0.0000  0.0010  0.0026  0.0014 </r>
        <r>  0.0075  0.0722  0.1022  0.0201  0.0006  0.0000  0.0010  0.0026  0.0014 </r>
       </set>
       <set comment="band 13">
        <r>  0.0000  0.0120  0.0232  0.0267  0.0012  0.0070  0.0096  0.0000  0.0140 </r>
        <r>  0.0017  0.0024  0.0043  0.0286  0.0009  0.0062  0.0100  0.0019  0.0197 </r>
        <r>  0.0017  0.0024  0.0043  0.0286  0.0009  0.0062  0.0100  0.0019  0.0197 </r>
       </set>
       <set comment="band 14">
        <r>  0.0019  0.0279  0.0262  0.0024  0.0025  0.0067  0.0246  0.0181  0.0130 </r>
        <r>  0.0007  0.0105  0.0089  0.0003  0.0035  0.0088  0.0178  0.0162  0.0119 </r>
        <r>  0.0007  0.0105  0.0089  0.0003  0.0035  0.0088  0.0178  0.0162  0.0119 </r>
       </set>
       <set comment="band 15">
        <r>  0.0003  0.0248  0.0022  0.0069  0.0304  0.0179  0.0012  0.0003  0.0103 </r>
        <r>  0.0019  0.0217  0.0003  0.0101  0.0145  0.0063  0.0171  0.0253  0.0157 </r>
        <r>  0.0019  0.0217  0.0003  0.0101  0.0145  0.0063  0.0171  0.0253  0.0157 </r>
       </set>
       <set comment="band 16">
        <r>  0.0039  0.0336  0.0239  0.0008  0.0011  0.0168  0.0474  0.0000  0.0173 </r>
        <r>  0.0006  0.0205  0.0059  0.0007  0.0075  0.0082  0.0214  0.0015  0.0021 </r>
        <r>  0.0006  0.0205  0.0059  0.0007  0.0075  0.0082  0.0214  0.0015  0.0021 </r>
       </set>
       <set comment="band 17">
        <r>  0.0006  0.0013  0.0046  0.0026  0.0198  0.0000  0.0005  0.0010  0.0111 </r>
        <r>  0.0069  0.0112  0.0078  0.0064  0.0105  0.0095  0.0259  0.0159  0.0113 </r>
        <r>  0.0069  0.0111  0.0078  0.0064  0.0105  0.0095  0.0259  0.0159  0.0113 </r>
       </set>
       <set comment="band 18">
        <r>  0.0001  0.0009  0.0008  0.0009  0.0221  0.0043  0.0000  0.0628  0.0025 </r>
        <r>  0.0029  0.0056  0.0012  0.0007  0.0329  0.0037  0.0025  0.0419  0.0002 </r>
        <r>  0.0029  0.0056  0.0012  0.0007  0.0329  0.0037  0.0025  0.0419  0.0002 </r>
       </set>
       <set comment="band 19">
        <r>  0.0078  0.0057  0.0029  0.0105  0.0127  0.0037  0.0002  0.0586  0.0048 </r>
        <r>  0.0012  0.0020  0.0005  0.0111  0.0806  0.0081  0.0023  0.0328  0.0003 </r>
        <r>  0.0012  0.0020  0.0005  0.0111  0.0806  0.0081  0.0023  0.0328  0.0003 </r>
       </set>
       <set comment="band 20">
        <r>  0.0222  0.0103  0.0224  0.0171  0.0381  0.0042  0.0161  0.0003  0.0166 </r>
        <r>  0.0328  0.0013  0.0109  0.0056  0.0040  0.0053  0.0033  0.0086  0.0283 </r>
        <r>  0.0328  0.0013  0.0109  0.0056  0.0040  0.0053  0.0033  0.0086  0.0283 </r>
       </set>
       <set comment="band 21">
        <r>  0.0089  0.0292  0.0065  0.0082  0.0225  0.0254  0.0258  0.0123  0.0053 </r>
        <r>  0.0055  0.0543  0.0089  0.0007  0.0110  0.0116  0.0151  0.0026  0.0114 </r>
        <r>  0.0055  0.0543  0.0089  0.0007  0.0110  0.0116  0.0151  0.0026  0.0114 </r>
       </set>
       <set comment="band 22">
        <r>  0.0038  0.0000  0.0035  0.0015  0.0073  0.0158  0.0083  0.0176  0.0358 </r>
        <r>  0.0032  0.0134  0.0095  0.0047  0.0052  0.0375  0.0701  0.0027  0.0354 </r>
        <r>  0.0032  0.0134  0.0095  0.0047  0.0052  0.0375  0.0701  0.0027  0.0354 </r>
       </set>
       <set comment="band 23">
        <r>  0.0100  0.0097  0.0002  0.0177  0.0474  0.0038  0.0007  0.0172  0.0005 </r>
        <r>  0.0042  0.0011  0.0023  0.0114  0.0546  0.0041  0.0008  0.0251  0.0025 </r>
        <r>  0.0042  0.0011  0.0023  0.0114  0.0546  0.0041  0.0008  0.0251  0.0025 </r>
       </set>
       <set comment="band 24">
        <r>  0.0007  0.0281  0.0047  0.0112  0.0318  0.0495  0.0129  0.0093  0.0018 </r>
        <r>  0.0010  0.0002  0.0028  0.0134  0.0313  0.0027  0.0040  0.0305  0.0098 </r>
        <r>  0.0010  0.0002  0.0028  0.0134  0.0313  0.0027  0.0040  0.0304  0.0098 </r>
       </set>
       <set comment="band 25">
        <r>  0.0009  0.0030  0.0014  0.0076  0.0317  0.0000  0.0506  0.0215  0.0493 </r>
        <r>  0.0030  0.0023  0.0048  0.0035  0.0142  0.0188  0.0054  0.0240  0.0173 </r>
        <r>  0.0030  0.0023  0.0048  0.0035  0.0142  0.0188  0.0054  0.0240  0.0173 </r>
       </set>
       <set comment="band 26">
        <r>  0.0000  0.0181  0.0006  0.0018  0.0380  0.0016  0.0288  0.0026  0.0095 </r>
        <r>  0.0091  0.0225  0.0125  0.0018  0.0036  0.0304  0.0367  0.0032  0.0084 </r>
        <r>  0.0091  0.0226  0.0125  0.0018  0.0036  0.0304  0.0367  0.0032  0.0084 </r>
       </set>
       <set comment="band 27">
        <r>  0.0047  0.0007  0.0043  0.0007  0.0189  0.0142  0.0043  0.0230  0.0047 </r>
        <r>  0.0000  0.0038  0.0007  0.0078  0.0472  0.0062  0.0007  0.0027  0.0001 </r>
        <r>  0.0000  0.0038  0.0007  0.0078  0.0472  0.0062  0.0007  0.0027  0.0001 </r>
       </set>
       <set comment="band 28">
        <r>  0.0354  0.0005  0.0122  0.0042  0.0153  0.0180  0.0156  0.0035  0.0068 </r>
        <r>  0.0091  0.0115  0.0127  0.0028  0.0042  0.0780  0.0115  0.0120  0.0042 </r>
        <r>  0.0091  0.0115  0.0127  0.0028  0.0042  0.0780  0.0115  0.0120  0.0042 </r>
       </set>
       <set comment="band 29">
        <r>  0.0050  0.0091  0.0145  0.0001  0.0034  0.0722  0.0182  0.0009  0.0361 </r>
        <r>  0.0133  0.0164  0.0409  0.0018  0.0010  0.0754  0.0048  0.0011  0.0627 </r>
        <r>  0.0133  0.0164  0.0409  0.0018  0.0010  0.0755  0.0047  0.0011  0.0627 </r>
       </set>
       <set comment="band 30">
        <r>  0.0005  0.0083  0.0090  0.0009  0.0144  0.0995  0.0600  0.0001  0.0145 </r>
        <r>  0.0038  0.0014  0.0076  0.0034  0.0186  0.0393  0.0365  0.0060  0.0253 </r>
        <r>  0.0038  0.0014  0.0077  0.0034  0.0186  0.0397  0.0362  0.0060  0.0253 </r>
       </set>
       <set comment="band 31">
        <r>  0.0006  0.0041  0.0000  0.0081  0.0231  0.0241  0.0003  0.0103  0.0261 </r>
        <r>  0.0049  0.0059  0.0015  0.0124  0.0365  0.0227  0.0067  0.0803  0.0086 </r>
        <r>  0.0048  0.0058  0.0014  0.0125  0.0360  0.0226  0.0064  0.0805  0.0086 </r>
       </set>
       <set comment="band 32">
        <r>  0.0058  0.0005  0.0050  0.0035  0.0124  0.0286  0.0106  0.0158  0.0217 </r>
        <r>  0.0049  0.0054  0.0051  0.0004  0.0013  0.0612  0.0845  0.0111  0.0300 </r>
        <r>  0.0054  0.0060  0.0026  0.0006  0.0039  0.0571  0.1053  0.0042  0.0277 </r>
       </set>
      </set>
      <set comment="kpoint 48">
       <set comment="band 1">
        <r>  0.1657  0.0004  0.0022  0.0039  0.0001  0.0001  0.0000  0.0005  0.0000 </r>
        <r>  0.3248  0.0021  0.0009  0.0009  0.0002  0.0001  0.0001  0.0003  0.0001 </r>
        <r>  0.1657  0.0027  0.0022  0.0016  0.0000  0.0004  0.0000  0.0002  0.0001 </r>
       </set>
       <set comment="band 2">
        <r>  0.3001  0.0009  0.0015  0.0033  0.0001  0.0002  0.0000  0.0006  0.0000 </r>
        <r>  0.0625  0.0016  0.0077  0.0043  0.0000  0.0004  0.0000  0.0002  0.0001 </r>
        <r>  0.3001  0.0015  0.0015  0.0026  0.0001  0.0003  0.0000  0.0005  0.0001 </r>
       </set>
       <set comment="band 3">
        <r>  0.2002  0.0013  0.0023  0.0092  0.0000  0.0001  0.0000  0.0001  0.0000 </r>
        <r>  0.2742  0.0004  0.0000  0.0004  0.0000  0.0001  0.0000  0.0003  0.0000 </r>
        <r>  0.2002  0.0044  0.0023  0.0061  0.0000  0.0001  0.0000  0.0001  0.0000 </r>
       </set>
       <set comment="band 4">
        <r>  0.0042  0.0197  0.0626  0.0490  0.0002  0.0000  0.0000  0.0003  0.0001 </r>
        <r>  0.0001  0.0284  0.0058  0.0831  0.0001  0.0001  0.0000  0.0002  0.0001 </r>
        <r>  0.0042  0.0148  0.0626  0.0540  0.0002  0.0002  0.0000  0.0001  0.0001 </r>
       </set>
       <set comment="band 5">
        <r>  0.0094  0.0181  0.0618  0.0594  0.0012  0.0002  0.0001  0.0007  0.0002 </r>
        <r>  0.0239  0.0168  0.1254  0.0102  0.0009  0.0017  0.0000  0.0006  0.0006 </r>
        <r>  0.0094  0.0523  0.0618  0.0252  0.0008  0.0005  0.0001  0.0004  0.0006 </r>
       </set>
       <set comment="band 6">
        <r>  0.0022  0.0599  0.0252  0.0487  0.0004  0.0008  0.0000  0.0003  0.0004 </r>
        <r>  0.0186  0.1190  0.0274  0.0397  0.0003  0.0010  0.0001  0.0005  0.0002 </r>
        <r>  0.0022  0.0944  0.0252  0.0142  0.0006  0.0005  0.0000  0.0006  0.0002 </r>
       </set>
       <set comment="band 7">
        <r>  0.0128  0.1041  0.0354  0.0065  0.0011  0.0019  0.0003  0.0011  0.0001 </r>
        <r>  0.0187  0.0527  0.0462  0.0206  0.0026  0.0004  0.0001  0.0002  0.0009 </r>
        <r>  0.0128  0.0271  0.0355  0.0836  0.0005  0.0024  0.0003  0.0007  0.0007 </r>
       </set>
       <set comment="band 8">
        <r>  0.0047  0.1166  0.0439  0.0037  0.0011  0.0008  0.0002  0.0027  0.0003 </r>
        <r>  0.0017  0.0381  0.0715  0.0128  0.0004  0.0012  0.0001  0.0004  0.0002 </r>
        <r>  0.0047  0.0495  0.0439  0.0707  0.0010  0.0032  0.0002  0.0003  0.0004 </r>
       </set>
       <set comment="band 9">
        <r>  0.0286  0.0148  0.0375  0.0615  0.0000  0.0014  0.0012  0.0038  0.0000 </r>
        <r>  0.0024  0.0519  0.0112  0.1516  0.0002  0.0009  0.0009  0.0017  0.0001 </r>
        <r>  0.0286  0.0264  0.0375  0.0499  0.0000  0.0012  0.0012  0.0040  0.0000 </r>
       </set>
       <set comment="band 10">
        <r>  0.0126  0.0113  0.0380  0.1422  0.0011  0.0012  0.0043  0.0010  0.0005 </r>
        <r>  0.0140  0.0520  0.0200  0.0510  0.0015  0.0006  0.0081  0.0008  0.0005 </r>
        <r>  0.0126  0.1369  0.0380  0.0166  0.0013  0.0002  0.0043  0.0019  0.0003 </r>
       </set>
       <set comment="band 11">
        <r>  0.0023  0.0875  0.0893  0.0003  0.0018  0.0013  0.0008  0.0064  0.0010 </r>
        <r>  0.0001  0.0762  0.0043  0.0438  0.0005  0.0072  0.0006  0.0105  0.0006 </r>
        <r>  0.0023  0.0252  0.0893  0.0626  0.0023  0.0029  0.0008  0.0047  0.0005 </r>
       </set>
       <set comment="band 12">
        <r>  0.0026  0.0248  0.1007  0.0764  0.0020  0.0017  0.0013  0.0005  0.0003 </r>
        <r>  0.0066  0.0200  0.1395  0.0094  0.0013  0.0047  0.0000  0.0025  0.0009 </r>
        <r>  0.0026  0.0445  0.1007  0.0567  0.0014  0.0015  0.0013  0.0007  0.0010 </r>
       </set>
       <set comment="band 13">
        <r>  0.0010  0.0264  0.0065  0.0040  0.0160  0.0023  0.0095  0.0061  0.0059 </r>
        <r>  0.0000  0.0256  0.0445  0.0257  0.0064  0.0014  0.0071  0.0030  0.0022 </r>
        <r>  0.0010  0.0172  0.0066  0.0131  0.0166  0.0031  0.0095  0.0053  0.0053 </r>
       </set>
       <set comment="band 14">
        <r>  0.0010  0.0134  0.0074  0.0023  0.0067  0.0106  0.0119  0.0123  0.0058 </r>
        <r>  0.0006  0.0046  0.0144  0.0126  0.0234  0.0142  0.0158  0.0133  0.0088 </r>
        <r>  0.0010  0.0016  0.0074  0.0141  0.0111  0.0152  0.0119  0.0077  0.0014 </r>
       </set>
       <set comment="band 15">
        <r>  0.0132  0.0059  0.0025  0.0187  0.0146  0.0463  0.0126  0.0123  0.0064 </r>
        <r>  0.0148  0.0056  0.0013  0.0090  0.0124  0.0348  0.0003  0.0190  0.0073 </r>
        <r>  0.0132  0.0226  0.0025  0.0020  0.0096  0.0375  0.0126  0.0211  0.0114 </r>
       </set>
       <set comment="band 16">
        <r>  0.0138  0.0050  0.0021  0.0137  0.0221  0.0507  0.0041  0.0059  0.0008 </r>
        <r>  0.0087  0.0199  0.0026  0.0089  0.0092  0.0248  0.0044  0.0182  0.0209 </r>
        <r>  0.0138  0.0067  0.0021  0.0121  0.0099  0.0302  0.0041  0.0264  0.0131 </r>
       </set>
       <set comment="band 17">
        <r>  0.0016  0.0181  0.0027  0.0488  0.0036  0.0002  0.0171  0.0084  0.0002 </r>
        <r>  0.0009  0.0009  0.0057  0.0020  0.0046  0.0048  0.0453  0.0087  0.0082 </r>
        <r>  0.0016  0.0157  0.0027  0.0513  0.0016  0.0073  0.0171  0.0013  0.0021 </r>
       </set>
       <set comment="band 18">
        <r>  0.0025  0.0049  0.0005  0.0007  0.0024  0.0083  0.0274  0.0127  0.0227 </r>
        <r>  0.0016  0.0269  0.0126  0.0785  0.0007  0.0097  0.0000  0.0064  0.0008 </r>
        <r>  0.0025  0.0034  0.0005  0.0022  0.0121  0.0041  0.0274  0.0168  0.0131 </r>
       </set>
       <set comment="band 19">
        <r>  0.0002  0.0079  0.0000  0.0093  0.0169  0.0091  0.0224  0.0004  0.0793 </r>
        <r>  0.0021  0.0048  0.0003  0.0114  0.0083  0.0072  0.0280  0.0076  0.0162 </r>
        <r>  0.0002  0.0030  0.0000  0.0142  0.0332  0.0036  0.0225  0.0059  0.0631 </r>
       </set>
       <set comment="band 20">
        <r>  0.0209  0.0027  0.0039  0.0131  0.0024  0.0062  0.0392  0.0049  0.0187 </r>
        <r>  0.0017  0.0061  0.0035  0.0022  0.0192  0.0159  0.0137  0.0061  0.0351 </r>
        <r>  0.0209  0.0076  0.0039  0.0082  0.0113  0.0007  0.0392  0.0103  0.0097 </r>
       </set>
       <set comment="band 21">
        <r>  0.0023  0.0119  0.0014  0.0081  0.0192  0.0023  0.0104  0.0000  0.0276 </r>
        <r>  0.0017  0.0002  0.0027  0.0001  0.0324  0.0151  0.0076  0.0076  0.0973 </r>
        <r>  0.0023  0.0030  0.0014  0.0170  0.0063  0.0003  0.0104  0.0020  0.0405 </r>
       </set>
       <set comment="band 22">
        <r>  0.0099  0.0024  0.0039  0.0012  0.0113  0.0030  0.0015  0.0172  0.0650 </r>
        <r>  0.0243  0.0066  0.0051  0.0024  0.0034  0.0004  0.0112  0.0009  0.0012 </r>
        <r>  0.0099  0.0025  0.0039  0.0011  0.0283  0.0197  0.0015  0.0005  0.0480 </r>
       </set>
       <set comment="band 23">
        <r>  0.0011  0.0006  0.0016  0.0066  0.0224  0.0130  0.0507  0.0106  0.0037 </r>
        <r>  0.0002  0.0047  0.0128  0.0120  0.0157  0.0047  0.0709  0.0067  0.0095 </r>
        <r>  0.0011  0.0039  0.0016  0.0033  0.0160  0.0013  0.0507  0.0223  0.0101 </r>
       </set>
       <set comment="band 24">
        <r>  0.0040  0.0066  0.0006  0.0051  0.0114  0.0193  0.0029  0.0073  0.0110 </r>
        <r>  0.0018  0.0063  0.0004  0.0034  0.0215  0.0095  0.0014  0.0055  0.0262 </r>
        <r>  0.0040  0.0008  0.0006  0.0109  0.0120  0.0116  0.0029  0.0150  0.0104 </r>
       </set>
       <set comment="band 25">
        <r>  0.0093  0.0060  0.0228  0.0088  0.0189  0.0077  0.0065  0.0264  0.0085 </r>
        <r>  0.0217  0.0021  0.0009  0.0007  0.0400  0.0288  0.0055  0.0690  0.0143 </r>
        <r>  0.0093  0.0032  0.0228  0.0116  0.0178  0.0109  0.0065  0.0232  0.0096 </r>
       </set>
       <set comment="band 26">
        <r>  0.0039  0.0078  0.0254  0.0030  0.0469  0.0299  0.0099  0.0658  0.0175 </r>
        <r>  0.0019  0.0027  0.0114  0.0081  0.0240  0.0321  0.0008  0.0333  0.0083 </r>
        <r>  0.0039  0.0034  0.0254  0.0074  0.0463  0.0184  0.0099  0.0773  0.0180 </r>
       </set>
       <set comment="band 27">
        <r>  0.0027  0.0175  0.0024  0.0128  0.0156  0.0271  0.0043  0.0789  0.0156 </r>
        <r>  0.0039  0.0164  0.0212  0.0113  0.0169  0.0369  0.0106  0.0293  0.0505 </r>
        <r>  0.0027  0.0264  0.0024  0.0040  0.0078  0.1042  0.0043  0.0017  0.0235 </r>
       </set>
       <set comment="band 28">
        <r>  0.0036  0.0080  0.0210  0.0036  0.0235  0.0096  0.0223  0.0334  0.0004 </r>
        <r>  0.0034  0.0032  0.0007  0.0033  0.0227  0.0061  0.0784  0.0180  0.0124 </r>
        <r>  0.0036  0.0012  0.0210  0.0104  0.0067  0.0122  0.0222  0.0309  0.0173 </r>
       </set>
       <set comment="band 29">
        <r>  0.0097  0.0109  0.0103  0.0130  0.0176  0.0088  0.0156  0.0323  0.0320 </r>
        <r>  0.0032  0.0254  0.0067  0.0314  0.0056  0.0124  0.0031  0.0114  0.0020 </r>
        <r>  0.0097  0.0078  0.0105  0.0161  0.0130  0.0124  0.0158  0.0283  0.0366 </r>
       </set>
       <set comment="band 30">
        <r>  0.0001  0.0018  0.0065  0.0045  0.0111  0.0344  0.0204  0.0333  0.0004 </r>
        <r>  0.0000  0.0009  0.0142  0.0012  0.0101  0.0090  0.0021  0.0184  0.0148 </r>
        <r>  0.0001  0.0037  0.0064  0.0025  0.0014  0.0573  0.0208  0.0103  0.0099 </r>
       </set>
       <set comment="band 31">
        <r>  0.0022  0.0032  0.0016  0.0015  0.0872  0.0362  0.0192  0.0212  0.0048 </r>
        <r>  0.0068  0.0018  0.0004  0.0008  0.0229  0.0139  0.0242  0.0323  0.0162 </r>
        <r>  0.0022  0.0014  0.0014  0.0034  0.0192  0.0127  0.0193  0.0458  0.0717 </r>
       </set>
       <set comment="band 32">
        <r>  0.0022  0.0078  0.0155  0.0043  0.0132  0.0284  0.0429  0.0047  0.0132 </r>
        <r>  0.0104  0.0004  0.0044  0.0010  0.0520  0.0266  0.0158  0.0799  0.0291 </r>
        <r>  0.0024  0.0044  0.0163  0.0079  0.0263  0.0008  0.0414  0.0319  0.0026 </r>
       </set>
      </set>
      <set comment="kpoint 49">
       <set comment="band 1">
        <r>  0.2112  0.0012  0.0029  0.0014  0.0000  0.0000  0.0000  0.0002  0.0000 </r>
        <r>  0.2170  0.0019  0.0025  0.0004  0.0001  0.0001  0.0000  0.0001  0.0000 </r>
        <r>  0.1913  0.0020  0.0028  0.0008  0.0000  0.0002  0.0000  0.0001  0.0000 </r>
       </set>
       <set comment="band 2">
        <r>  0.2058  0.0001  0.0068  0.0015  0.0001  0.0002  0.0000  0.0002  0.0001 </r>
        <r>  0.1956  0.0009  0.0072  0.0010  0.0000  0.0003  0.0000  0.0001  0.0001 </r>
        <r>  0.2305  0.0011  0.0059  0.0006  0.0000  0.0003  0.0000  0.0002  0.0001 </r>
       </set>
       <set comment="band 3">
        <r>  0.2492  0.0005  0.0013  0.0034  0.0000  0.0002  0.0000  0.0000  0.0001 </r>
        <r>  0.2577  0.0039  0.0019  0.0011  0.0000  0.0002  0.0000  0.0001  0.0000 </r>
        <r>  0.2501  0.0058  0.0018  0.0019  0.0000  0.0002  0.0000  0.0000  0.0000 </r>
       </set>
       <set comment="band 4">
        <r>  0.0094  0.1011  0.0348  0.0095  0.0011  0.0001  0.0004  0.0015  0.0005 </r>
        <r>  0.0036  0.0487  0.0786  0.0128  0.0001  0.0009  0.0000  0.0008  0.0014 </r>
        <r>  0.0013  0.0197  0.1379  0.0151  0.0002  0.0015  0.0000  0.0007  0.0011 </r>
       </set>
       <set comment="band 5">
        <r>  0.0087  0.0025  0.1271  0.0095  0.0002  0.0006  0.0001  0.0023  0.0001 </r>
        <r>  0.0124  0.0778  0.0395  0.0442  0.0010  0.0001  0.0003  0.0002  0.0005 </r>
        <r>  0.0050  0.1018  0.0136  0.0221  0.0006  0.0004  0.0005  0.0001  0.0005 </r>
       </set>
       <set comment="band 6">
        <r>  0.0186  0.0076  0.0106  0.2033  0.0001  0.0003  0.0002  0.0002  0.0006 </r>
        <r>  0.0074  0.0060  0.0479  0.0169  0.0000  0.0022  0.0000  0.0010  0.0004 </r>
        <r>  0.0050  0.0540  0.0094  0.1072  0.0007  0.0005  0.0001  0.0007  0.0005 </r>
       </set>
       <set comment="band 7">
        <r>  0.0066  0.0004  0.0414  0.0289  0.0002  0.0003  0.0005  0.0011  0.0009 </r>
        <r>  0.0043  0.0645  0.0542  0.1990  0.0005  0.0001  0.0008  0.0001  0.0001 </r>
        <r>  0.0141  0.0004  0.0077  0.0230  0.0005  0.0007  0.0004  0.0021  0.0003 </r>
       </set>
       <set comment="band 8">
        <r>  0.0039  0.2250  0.0350  0.0050  0.0004  0.0003  0.0004  0.0002  0.0003 </r>
        <r>  0.0169  0.0994  0.0244  0.0128  0.0004  0.0013  0.0003  0.0001  0.0007 </r>
        <r>  0.0177  0.0320  0.0387  0.0090  0.0000  0.0031  0.0009  0.0006  0.0006 </r>
       </set>
       <set comment="band 9">
        <r>  0.0140  0.0025  0.0203  0.0406  0.0010  0.0007  0.0002  0.0011  0.0020 </r>
        <r>  0.0103  0.0026  0.0177  0.0317  0.0022  0.0010  0.0005  0.0013  0.0001 </r>
        <r>  0.0047  0.0917  0.0718  0.2094  0.0002  0.0002  0.0001  0.0000  0.0002 </r>
       </set>
       <set comment="band 10">
        <r>  0.0120  0.0650  0.0515  0.0990  0.0013  0.0009  0.0003  0.0043  0.0009 </r>
        <r>  0.0117  0.0575  0.0389  0.1134  0.0005  0.0005  0.0007  0.0043  0.0007 </r>
        <r>  0.0201  0.0230  0.0008  0.0038  0.0036  0.0002  0.0025  0.0013  0.0024 </r>
       </set>
       <set comment="band 11">
        <r>  0.0014  0.0506  0.0542  0.0136  0.0019  0.0005  0.0054  0.0013  0.0001 </r>
        <r>  0.0014  0.0474  0.1402  0.0076  0.0010  0.0046  0.0036  0.0003  0.0018 </r>
        <r>  0.0096  0.1572  0.0364  0.0274  0.0002  0.0018  0.0017  0.0008  0.0003 </r>
       </set>
       <set comment="band 12">
        <r>  0.0074  0.0324  0.0685  0.0694  0.0025  0.0024  0.0003  0.0025  0.0021 </r>
        <r>  0.0138  0.0754  0.0108  0.0534  0.0014  0.0021  0.0032  0.0004  0.0016 </r>
        <r>  0.0026  0.0026  0.1536  0.0630  0.0017  0.0024  0.0000  0.0010  0.0014 </r>
       </set>
       <set comment="band 13">
        <r>  0.0004  0.0016  0.0003  0.0051  0.0026  0.0075  0.0172  0.0006  0.0204 </r>
        <r>  0.0006  0.0013  0.0085  0.0060  0.0016  0.0045  0.0180  0.0052  0.0159 </r>
        <r>  0.0011  0.0028  0.0066  0.0213  0.0066  0.0098  0.0179  0.0015  0.0145 </r>
       </set>
       <set comment="band 14">
        <r>  0.0033  0.0002  0.0088  0.0009  0.0102  0.0080  0.0258  0.0054  0.0016 </r>
        <r>  0.0007  0.0002  0.0018  0.0027  0.0147  0.0023  0.0254  0.0035  0.0131 </r>
        <r>  0.0001  0.0112  0.0000  0.0037  0.0063  0.0045  0.0354  0.0112  0.0111 </r>
       </set>
       <set comment="band 15">
        <r>  0.0055  0.0102  0.0154  0.0043  0.0065  0.0162  0.0224  0.0035  0.0174 </r>
        <r>  0.0027  0.0151  0.0209  0.0038  0.0004  0.0256  0.0137  0.0034  0.0138 </r>
        <r>  0.0012  0.0011  0.0041  0.0008  0.0206  0.0093  0.0006  0.0049  0.0219 </r>
       </set>
       <set comment="band 16">
        <r>  0.0017  0.0084  0.0405  0.0058  0.0328  0.0051  0.0060  0.0162  0.0014 </r>
        <r>  0.0031  0.0008  0.0094  0.0015  0.0275  0.0026  0.0039  0.0327  0.0069 </r>
        <r>  0.0039  0.0019  0.0115  0.0011  0.0061  0.0092  0.0143  0.0224  0.0034 </r>
       </set>
       <set comment="band 17">
        <r>  0.0172  0.0117  0.0073  0.0117  0.0032  0.0374  0.0019  0.0092  0.0074 </r>
        <r>  0.0227  0.0156  0.0092  0.0048  0.0022  0.0126  0.0032  0.0005  0.0092 </r>
        <r>  0.0153  0.0148  0.0038  0.0007  0.0244  0.0269  0.0058  0.0066  0.0020 </r>
       </set>
       <set comment="band 18">
        <r>  0.0099  0.0018  0.0076  0.0113  0.0103  0.0062  0.0023  0.0089  0.0318 </r>
        <r>  0.0043  0.0062  0.0134  0.0029  0.0172  0.0190  0.0088  0.0119  0.0297 </r>
        <r>  0.0088  0.0061  0.0251  0.0019  0.0202  0.0027  0.0095  0.0257  0.0147 </r>
       </set>
       <set comment="band 19">
        <r>  0.0078  0.0110  0.0197  0.0077  0.0318  0.0043  0.0025  0.0099  0.0123 </r>
        <r>  0.0017  0.0115  0.0234  0.0035  0.0546  0.0015  0.0003  0.0255  0.0041 </r>
        <r>  0.0191  0.0002  0.0008  0.0213  0.0001  0.0138  0.0010  0.0096  0.0201 </r>
       </set>
       <set comment="band 20">
        <r>  0.0011  0.0018  0.0063  0.0072  0.0114  0.0231  0.0039  0.0403  0.0132 </r>
        <r>  0.0052  0.0035  0.0033  0.0055  0.0120  0.0254  0.0077  0.0285  0.0119 </r>
        <r>  0.0030  0.0017  0.0106  0.0002  0.0075  0.0114  0.0043  0.0058  0.0152 </r>
       </set>
       <set comment="band 21">
        <r>  0.0041  0.0000  0.0062  0.0023  0.0114  0.0069  0.0024  0.0405  0.0145 </r>
        <r>  0.0099  0.0051  0.0103  0.0078  0.0036  0.0077  0.0132  0.0030  0.0046 </r>
        <r>  0.0068  0.0024  0.0000  0.0060  0.0371  0.0025  0.0115  0.0064  0.0229 </r>
       </set>
       <set comment="band 22">
        <r>  0.0115  0.0033  0.0016  0.0013  0.0094  0.0029  0.0203  0.0201  0.0078 </r>
        <r>  0.0097  0.0002  0.0022  0.0009  0.0017  0.0247  0.0158  0.0326  0.0134 </r>
        <r>  0.0011  0.0014  0.0063  0.0006  0.0031  0.0085  0.0006  0.0762  0.0085 </r>
       </set>
       <set comment="band 23">
        <r>  0.0037  0.0151  0.0175  0.0156  0.0174  0.0058  0.0069  0.0482  0.0243 </r>
        <r>  0.0091  0.0014  0.0026  0.0353  0.0041  0.0267  0.0048  0.0109  0.0243 </r>
        <r>  0.0002  0.0204  0.0395  0.0030  0.0333  0.0278  0.0021  0.0271  0.0228 </r>
       </set>
       <set comment="band 24">
        <r>  0.0163  0.0001  0.0053  0.0116  0.0230  0.0143  0.0219  0.0202  0.0102 </r>
        <r>  0.0019  0.0033  0.0230  0.0018  0.0359  0.0168  0.0030  0.0462  0.0175 </r>
        <r>  0.0102  0.0004  0.0054  0.0247  0.0010  0.0798  0.0199  0.0001  0.0055 </r>
       </set>
       <set comment="band 25">
        <r>  0.0007  0.0047  0.0082  0.0020  0.0356  0.0505  0.0104  0.0168  0.0110 </r>
        <r>  0.0042  0.0092  0.0063  0.0027  0.0170  0.0213  0.0333  0.0389  0.0085 </r>
        <r>  0.0076  0.0124  0.0013  0.0020  0.0298  0.0041  0.0398  0.0194  0.0073 </r>
       </set>
       <set comment="band 26">
        <r>  0.0051  0.0147  0.0030  0.0128  0.0005  0.0588  0.0487  0.0081  0.0174 </r>
        <r>  0.0043  0.0134  0.0018  0.0106  0.0005  0.0299  0.0455  0.0184  0.0108 </r>
        <r>  0.0009  0.0009  0.0002  0.0072  0.0082  0.0118  0.0042  0.0410  0.0189 </r>
       </set>
       <set comment="band 27">
        <r>  0.0072  0.0075  0.0029  0.0008  0.0011  0.0298  0.0271  0.0003  0.0112 </r>
        <r>  0.0007  0.0208  0.0042  0.0016  0.0238  0.0209  0.0187  0.0059  0.0027 </r>
        <r>  0.0005  0.0364  0.0100  0.0126  0.0180  0.0215  0.0881  0.0094  0.0119 </r>
       </set>
       <set comment="band 28">
        <r>  0.0015  0.0305  0.0062  0.0039  0.0315  0.0064  0.0165  0.0001  0.0102 </r>
        <r>  0.0136  0.0019  0.0063  0.0001  0.0363  0.0070  0.0039  0.0027  0.0215 </r>
        <r>  0.0160  0.0123  0.0081  0.0001  0.0243  0.0514  0.0126  0.0072  0.0097 </r>
       </set>
       <set comment="band 29">
        <r>  0.0053  0.0056  0.0003  0.0010  0.0584  0.0150  0.0155  0.0123  0.0097 </r>
        <r>  0.0012  0.0210  0.0010  0.0062  0.0048  0.0357  0.0490  0.0345  0.0188 </r>
        <r>  0.0052  0.0015  0.0057  0.0067  0.0546  0.0107  0.0012  0.0283  0.0019 </r>
       </set>
       <set comment="band 30">
        <r>  0.0062  0.0036  0.0038  0.0041  0.0338  0.0555  0.0645  0.0121  0.0344 </r>
        <r>  0.0031  0.0043  0.0110  0.0004  0.0574  0.0104  0.0206  0.0120  0.0357 </r>
        <r>  0.0048  0.0014  0.0014  0.0028  0.0025  0.0227  0.0007  0.0071  0.0161 </r>
       </set>
       <set comment="band 31">
        <r>  0.0023  0.0090  0.0076  0.0043  0.0164  0.0037  0.0145  0.0112  0.0037 </r>
        <r>  0.0054  0.0042  0.0030  0.0034  0.0253  0.0330  0.0527  0.0003  0.0358 </r>
        <r>  0.0000  0.0016  0.0073  0.0043  0.0100  0.0158  0.0449  0.0151  0.0375 </r>
       </set>
       <set comment="band 32">
        <r>  0.0031  0.0105  0.0040  0.0064  0.0052  0.0705  0.0106  0.0065  0.0424 </r>
        <r>  0.0024  0.0150  0.0113  0.0071  0.0164  0.0767  0.0074  0.0001  0.0869 </r>
        <r>  0.0015  0.0054  0.0149  0.0027  0.0102  0.0775  0.0425  0.0014  0.0749 </r>
       </set>
      </set>
      <set comment="kpoint 50">
       <set comment="band 1">
        <r>  0.2081  0.0014  0.0025  0.0022  0.0001  0.0000  0.0000  0.0003  0.0000 </r>
        <r>  0.2496  0.0023  0.0017  0.0006  0.0001  0.0002  0.0000  0.0002  0.0001 </r>
        <r>  0.1773  0.0027  0.0024  0.0011  0.0000  0.0003  0.0000  0.0001  0.0001 </r>
       </set>
       <set comment="band 2">
        <r>  0.2229  0.0003  0.0049  0.0026  0.0001  0.0003  0.0000  0.0004  0.0001 </r>
        <r>  0.1609  0.0012  0.0070  0.0021  0.0000  0.0004  0.0000  0.0001  0.0001 </r>
        <r>  0.2652  0.0014  0.0040  0.0015  0.0001  0.0003  0.0000  0.0003  0.0001 </r>
       </set>
       <set comment="band 3">
        <r>  0.2317  0.0007  0.0013  0.0065  0.0000  0.0002  0.0000  0.0000  0.0001 </r>
        <r>  0.2532  0.0033  0.0010  0.0018  0.0000  0.0001  0.0000  0.0002  0.0000 </r>
        <r>  0.2239  0.0061  0.0013  0.0045  0.0000  0.0001  0.0000  0.0001  0.0001 </r>
       </set>
       <set comment="band 4">
        <r>  0.0103  0.0759  0.0320  0.0355  0.0008  0.0000  0.0001  0.0014  0.0003 </r>
        <r>  0.0027  0.0616  0.0101  0.0457  0.0001  0.0005  0.0001  0.0009  0.0012 </r>
        <r>  0.0024  0.0015  0.1294  0.0297  0.0002  0.0011  0.0000  0.0006  0.0006 </r>
       </set>
       <set comment="band 5">
        <r>  0.0093  0.0201  0.0816  0.0070  0.0005  0.0005  0.0002  0.0013  0.0003 </r>
        <r>  0.0156  0.0247  0.0624  0.0527  0.0008  0.0003  0.0000  0.0003  0.0004 </r>
        <r>  0.0121  0.1295  0.0009  0.0229  0.0005  0.0003  0.0002  0.0000  0.0003 </r>
       </set>
       <set comment="band 6">
        <r>  0.0070  0.0287  0.0568  0.1102  0.0002  0.0003  0.0000  0.0003  0.0007 </r>
        <r>  0.0163  0.0535  0.1035  0.0155  0.0004  0.0014  0.0001  0.0004  0.0001 </r>
        <r>  0.0026  0.0129  0.0095  0.0512  0.0010  0.0002  0.0000  0.0010  0.0009 </r>
       </set>
       <set comment="band 7">
        <r>  0.0118  0.0010  0.0386  0.0688  0.0002  0.0006  0.0009  0.0026  0.0001 </r>
        <r>  0.0034  0.0501  0.0483  0.0878  0.0002  0.0014  0.0008  0.0001  0.0001 </r>
        <r>  0.0117  0.0241  0.0335  0.0792  0.0001  0.0011  0.0010  0.0026  0.0001 </r>
       </set>
       <set comment="band 8">
        <r>  0.0166  0.0680  0.0265  0.0220  0.0011  0.0014  0.0002  0.0011  0.0010 </r>
        <r>  0.0203  0.0478  0.0062  0.0817  0.0021  0.0001  0.0002  0.0011  0.0006 </r>
        <r>  0.0000  0.0159  0.0928  0.1039  0.0001  0.0019  0.0003  0.0004  0.0004 </r>
       </set>
       <set comment="band 9">
        <r>  0.0125  0.1488  0.0382  0.0216  0.0007  0.0008  0.0001  0.0004  0.0000 </r>
        <r>  0.0065  0.0554  0.0451  0.0231  0.0004  0.0018  0.0006  0.0012  0.0002 </r>
        <r>  0.0315  0.0859  0.0064  0.0480  0.0005  0.0030  0.0006  0.0003  0.0004 </r>
       </set>
       <set comment="band 10">
        <r>  0.0097  0.0857  0.0192  0.0863  0.0005  0.0005  0.0016  0.0022  0.0005 </r>
        <r>  0.0144  0.1121  0.0021  0.0797  0.0001  0.0003  0.0036  0.0033  0.0002 </r>
        <r>  0.0116  0.1153  0.0021  0.0168  0.0012  0.0008  0.0018  0.0005  0.0012 </r>
       </set>
       <set comment="band 11">
        <r>  0.0013  0.0118  0.0859  0.0430  0.0025  0.0042  0.0020  0.0006  0.0014 </r>
        <r>  0.0006  0.0225  0.1404  0.0131  0.0005  0.0092  0.0005  0.0025  0.0014 </r>
        <r>  0.0040  0.0607  0.1258  0.0206  0.0015  0.0026  0.0013  0.0006  0.0016 </r>
       </set>
       <set comment="band 12">
        <r>  0.0018  0.0255  0.1020  0.0865  0.0007  0.0017  0.0027  0.0038  0.0011 </r>
        <r>  0.0011  0.0384  0.0453  0.0800  0.0001  0.0013  0.0042  0.0015  0.0013 </r>
        <r>  0.0025  0.0303  0.0959  0.0907  0.0003  0.0007  0.0008  0.0030  0.0006 </r>
       </set>
       <set comment="band 13">
        <r>  0.0010  0.0039  0.0027  0.0017  0.0114  0.0055  0.0066  0.0116  0.0185 </r>
        <r>  0.0005  0.0020  0.0294  0.0183  0.0011  0.0043  0.0058  0.0046  0.0112 </r>
        <r>  0.0003  0.0002  0.0013  0.0249  0.0150  0.0192  0.0006  0.0011  0.0121 </r>
       </set>
       <set comment="band 14">
        <r>  0.0029  0.0121  0.0152  0.0010  0.0011  0.0077  0.0006  0.0018  0.0065 </r>
        <r>  0.0011  0.0062  0.0032  0.0026  0.0181  0.0027  0.0211  0.0106  0.0175 </r>
        <r>  0.0016  0.0020  0.0018  0.0128  0.0131  0.0002  0.0308  0.0183  0.0091 </r>
       </set>
       <set comment="band 15">
        <r>  0.0025  0.0017  0.0044  0.0065  0.0143  0.0001  0.0475  0.0098  0.0099 </r>
        <r>  0.0027  0.0040  0.0025  0.0018  0.0143  0.0126  0.0196  0.0064  0.0044 </r>
        <r>  0.0010  0.0089  0.0085  0.0134  0.0003  0.0004  0.0252  0.0018  0.0059 </r>
       </set>
       <set comment="band 16">
        <r>  0.0035  0.0297  0.0123  0.0102  0.0117  0.0251  0.0175  0.0187  0.0039 </r>
        <r>  0.0156  0.0024  0.0102  0.0033  0.0077  0.0012  0.0055  0.0176  0.0202 </r>
        <r>  0.0157  0.0193  0.0008  0.0015  0.0180  0.0045  0.0066  0.0164  0.0065 </r>
       </set>
       <set comment="band 17">
        <r>  0.0184  0.0152  0.0015  0.0062  0.0011  0.0282  0.0069  0.0106  0.0002 </r>
        <r>  0.0173  0.0436  0.0043  0.0031  0.0078  0.0232  0.0126  0.0034  0.0053 </r>
        <r>  0.0069  0.0199  0.0029  0.0015  0.0319  0.0239  0.0083  0.0024  0.0163 </r>
       </set>
       <set comment="band 18">
        <r>  0.0005  0.0000  0.0102  0.0111  0.0297  0.0256  0.0000  0.0080  0.0268 </r>
        <r>  0.0001  0.0080  0.0222  0.0055  0.0089  0.0246  0.0020  0.0298  0.0136 </r>
        <r>  0.0057  0.0010  0.0086  0.0014  0.0038  0.0369  0.0029  0.0272  0.0325 </r>
       </set>
       <set comment="band 19">
        <r>  0.0284  0.0152  0.0000  0.0041  0.0197  0.0096  0.0024  0.0146  0.0139 </r>
        <r>  0.0011  0.0048  0.0006  0.0099  0.0410  0.0097  0.0024  0.0315  0.0248 </r>
        <r>  0.0293  0.0018  0.0001  0.0028  0.0012  0.0018  0.0101  0.0312  0.0165 </r>
       </set>
       <set comment="band 20">
        <r>  0.0097  0.0006  0.0050  0.0040  0.0087  0.0200  0.0044  0.0116  0.0437 </r>
        <r>  0.0257  0.0031  0.0034  0.0015  0.0019  0.0376  0.0250  0.0021  0.0123 </r>
        <r>  0.0053  0.0004  0.0003  0.0048  0.0152  0.0121  0.0145  0.0207  0.0172 </r>
       </set>
       <set comment="band 21">
        <r>  0.0020  0.0023  0.0013  0.0041  0.0647  0.0024  0.0379  0.0295  0.0131 </r>
        <r>  0.0011  0.0064  0.0019  0.0063  0.0545  0.0043  0.0463  0.0278  0.0274 </r>
        <r>  0.0010  0.0034  0.0065  0.0037  0.0118  0.0019  0.0100  0.0024  0.0102 </r>
       </set>
       <set comment="band 22">
        <r>  0.0029  0.0057  0.0050  0.0030  0.0144  0.0128  0.0109  0.0201  0.0044 </r>
        <r>  0.0037  0.0004  0.0073  0.0044  0.0272  0.0013  0.0196  0.0070  0.0048 </r>
        <r>  0.0053  0.0116  0.0090  0.0040  0.0636  0.0008  0.0600  0.0347  0.0148 </r>
       </set>
       <set comment="band 23">
        <r>  0.0007  0.0009  0.0206  0.0043  0.0005  0.0019  0.0103  0.0383  0.0143 </r>
        <r>  0.0003  0.0073  0.0070  0.0051  0.0071  0.0132  0.0033  0.0048  0.0016 </r>
        <r>  0.0017  0.0102  0.0030  0.0148  0.0281  0.0119  0.0022  0.0312  0.0036 </r>
       </set>
       <set comment="band 24">
        <r>  0.0004  0.0063  0.0083  0.0011  0.0424  0.0073  0.0370  0.0056  0.0102 </r>
        <r>  0.0003  0.0066  0.0004  0.0204  0.0117  0.0063  0.0089  0.0225  0.0158 </r>
        <r>  0.0001  0.0000  0.0099  0.0024  0.0252  0.0130  0.0118  0.0135  0.0326 </r>
       </set>
       <set comment="band 25">
        <r>  0.0000  0.0172  0.0064  0.0281  0.0018  0.0016  0.0034  0.0163  0.0173 </r>
        <r>  0.0006  0.0086  0.0055  0.0180  0.0309  0.0218  0.0146  0.0233  0.0081 </r>
        <r>  0.0030  0.0174  0.0258  0.0024  0.0152  0.0062  0.0187  0.0060  0.0219 </r>
       </set>
       <set comment="band 26">
        <r>  0.0113  0.0133  0.0126  0.0015  0.0002  0.0264  0.0215  0.0172  0.0279 </r>
        <r>  0.0122  0.0057  0.0115  0.0011  0.0074  0.0032  0.0261  0.0031  0.0396 </r>
        <r>  0.0014  0.0171  0.0028  0.0203  0.0037  0.0088  0.0088  0.0054  0.0087 </r>
       </set>
       <set comment="band 27">
        <r>  0.0069  0.0015  0.0003  0.0241  0.0056  0.0452  0.0421  0.0298  0.0105 </r>
        <r>  0.0054  0.0095  0.0133  0.0092  0.0029  0.0417  0.0203  0.0234  0.0127 </r>
        <r>  0.0089  0.0010  0.0038  0.0151  0.0015  0.0982  0.0129  0.0032  0.0055 </r>
       </set>
       <set comment="band 28">
        <r>  0.0003  0.0014  0.0022  0.0221  0.0156  0.0264  0.0203  0.0212  0.0772 </r>
        <r>  0.0005  0.0075  0.0001  0.0102  0.0039  0.0116  0.0186  0.0302  0.0378 </r>
        <r>  0.0002  0.0021  0.0051  0.0193  0.0017  0.0376  0.0152  0.0294  0.0212 </r>
       </set>
       <set comment="band 29">
        <r>  0.0045  0.0012  0.0006  0.0035  0.0054  0.0274  0.0214  0.0288  0.0527 </r>
        <r>  0.0001  0.0014  0.0004  0.0166  0.0024  0.0148  0.0069  0.0339  0.0688 </r>
        <r>  0.0029  0.0004  0.0162  0.0140  0.0024  0.0213  0.0389  0.0075  0.0785 </r>
       </set>
       <set comment="band 30">
        <r>  0.0089  0.0048  0.0201  0.0016  0.0074  0.0331  0.0037  0.0009  0.0055 </r>
        <r>  0.0002  0.0263  0.0047  0.0084  0.0031  0.1300  0.0032  0.0061  0.0619 </r>
        <r>  0.0009  0.0165  0.0219  0.0011  0.0025  0.0616  0.0220  0.0388  0.0427 </r>
       </set>
       <set comment="band 31">
        <r>  0.0069  0.0236  0.0024  0.0123  0.0111  0.0643  0.0080  0.0121  0.0229 </r>
        <r>  0.0104  0.0058  0.0229  0.0030  0.0049  0.0001  0.0156  0.0304  0.0095 </r>
        <r>  0.0089  0.0012  0.0080  0.0049  0.0406  0.0572  0.0070  0.0150  0.0045 </r>
       </set>
       <set comment="band 32">
        <r>  0.0011  0.0003  0.0008  0.0015  0.1009  0.0081  0.0256  0.0087  0.0057 </r>
        <r>  0.0082  0.0063  0.0018  0.0064  0.1108  0.0558  0.0868  0.0225  0.0146 </r>
        <r>  0.0005  0.0182  0.0050  0.0003  0.0291  0.0050  0.0601  0.0598  0.0351 </r>
       </set>
      </set>
      <set comment="kpoint 51">
       <set comment="band 1">
        <r>  0.2436  0.0021  0.0024  0.0017  0.0000  0.0001  0.0000  0.0002  0.0001 </r>
        <r>  0.1743  0.0036  0.0025  0.0007  0.0000  0.0003  0.0000  0.0001  0.0001 </r>
        <r>  0.2155  0.0033  0.0022  0.0006  0.0001  0.0002  0.0000  0.0001  0.0000 </r>
       </set>
       <set comment="band 2">
        <r>  0.1748  0.0006  0.0061  0.0017  0.0001  0.0003  0.0000  0.0003  0.0001 </r>
        <r>  0.2657  0.0014  0.0036  0.0008  0.0000  0.0005  0.0000  0.0002  0.0001 </r>
        <r>  0.2091  0.0014  0.0049  0.0009  0.0000  0.0005  0.0000  0.0001  0.0001 </r>
       </set>
       <set comment="band 3">
        <r>  0.2458  0.0004  0.0003  0.0025  0.0000  0.0004  0.0000  0.0000  0.0001 </r>
        <r>  0.2319  0.0083  0.0009  0.0019  0.0000  0.0003  0.0000  0.0000  0.0001 </r>
        <r>  0.2459  0.0069  0.0013  0.0005  0.0000  0.0002  0.0000  0.0001  0.0000 </r>
       </set>
       <set comment="band 4">
        <r>  0.0094  0.1155  0.0019  0.0032  0.0004  0.0001  0.0003  0.0002  0.0002 </r>
        <r>  0.0021  0.0594  0.0808  0.0018  0.0000  0.0005  0.0001  0.0002  0.0006 </r>
        <r>  0.0054  0.0785  0.0527  0.0023  0.0000  0.0004  0.0001  0.0002  0.0008 </r>
       </set>
       <set comment="band 5">
        <r>  0.0063  0.0078  0.1241  0.0241  0.0006  0.0002  0.0000  0.0025  0.0004 </r>
        <r>  0.0015  0.0632  0.0553  0.0121  0.0004  0.0001  0.0001  0.0001  0.0007 </r>
        <r>  0.0037  0.0258  0.0627  0.0703  0.0006  0.0001  0.0001  0.0006  0.0008 </r>
       </set>
       <set comment="band 6">
        <r>  0.0180  0.0039  0.0441  0.1445  0.0001  0.0003  0.0001  0.0009  0.0007 </r>
        <r>  0.0041  0.0211  0.0210  0.1406  0.0006  0.0006  0.0000  0.0008  0.0007 </r>
        <r>  0.0105  0.0151  0.0333  0.0140  0.0000  0.0013  0.0000  0.0008  0.0007 </r>
       </set>
       <set comment="band 7">
        <r>  0.0090  0.0013  0.0386  0.0560  0.0000  0.0003  0.0005  0.0010  0.0007 </r>
        <r>  0.0160  0.0009  0.0106  0.0211  0.0001  0.0007  0.0006  0.0035  0.0005 </r>
        <r>  0.0001  0.0584  0.0574  0.1760  0.0002  0.0004  0.0006  0.0001  0.0002 </r>
       </set>
       <set comment="band 8">
        <r>  0.0167  0.0201  0.0474  0.0628  0.0008  0.0002  0.0000  0.0015  0.0023 </r>
        <r>  0.0059  0.0570  0.0763  0.1799  0.0000  0.0021  0.0003  0.0001  0.0005 </r>
        <r>  0.0042  0.0107  0.0294  0.0145  0.0008  0.0026  0.0002  0.0036  0.0007 </r>
       </set>
       <set comment="band 9">
        <r>  0.0015  0.2125  0.0318  0.0161  0.0001  0.0005  0.0006  0.0001  0.0007 </r>
        <r>  0.0141  0.0688  0.0351  0.0273  0.0000  0.0043  0.0012  0.0002  0.0008 </r>
        <r>  0.0330  0.0831  0.0227  0.0088  0.0010  0.0021  0.0009  0.0004  0.0005 </r>
       </set>
       <set comment="band 10">
        <r>  0.0160  0.0597  0.0269  0.0639  0.0008  0.0009  0.0020  0.0054  0.0003 </r>
        <r>  0.0270  0.0281  0.0234  0.0092  0.0016  0.0004  0.0017  0.0017  0.0019 </r>
        <r>  0.0167  0.0915  0.0086  0.1374  0.0003  0.0004  0.0013  0.0019  0.0004 </r>
       </set>
       <set comment="band 11">
        <r>  0.0033  0.0059  0.0473  0.0294  0.0017  0.0082  0.0018  0.0009  0.0010 </r>
        <r>  0.0060  0.1156  0.0706  0.0000  0.0007  0.0048  0.0014  0.0011  0.0016 </r>
        <r>  0.0022  0.0327  0.1672  0.0169  0.0006  0.0083  0.0012  0.0013  0.0013 </r>
       </set>
       <set comment="band 12">
        <r>  0.0049  0.0151  0.0896  0.0732  0.0007  0.0032  0.0029  0.0035  0.0030 </r>
        <r>  0.0027  0.0392  0.1114  0.0675  0.0006  0.0014  0.0001  0.0015  0.0013 </r>
        <r>  0.0050  0.0506  0.0361  0.0485  0.0003  0.0013  0.0052  0.0009  0.0047 </r>
       </set>
       <set comment="band 13">
        <r>  0.0004  0.0061  0.0119  0.0158  0.0023  0.0077  0.0087  0.0013  0.0168 </r>
        <r>  0.0010  0.0020  0.0078  0.0473  0.0022  0.0104  0.0124  0.0006  0.0205 </r>
        <r>  0.0008  0.0047  0.0072  0.0090  0.0009  0.0035  0.0080  0.0038  0.0197 </r>
       </set>
       <set comment="band 14">
        <r>  0.0048  0.0082  0.0198  0.0007  0.0054  0.0015  0.0261  0.0079  0.0044 </r>
        <r>  0.0001  0.0093  0.0004  0.0036  0.0051  0.0025  0.0324  0.0245  0.0081 </r>
        <r>  0.0013  0.0094  0.0035  0.0041  0.0158  0.0044  0.0310  0.0042  0.0091 </r>
       </set>
       <set comment="band 15">
        <r>  0.0010  0.0235  0.0248  0.0011  0.0187  0.0008  0.0296  0.0103  0.0118 </r>
        <r>  0.0018  0.0041  0.0045  0.0011  0.0177  0.0048  0.0089  0.0013  0.0059 </r>
        <r>  0.0009  0.0052  0.0142  0.0041  0.0082  0.0177  0.0105  0.0010  0.0039 </r>
       </set>
       <set comment="band 16">
        <r>  0.0007  0.0280  0.0056  0.0115  0.0174  0.0247  0.0059  0.0187  0.0038 </r>
        <r>  0.0034  0.0151  0.0078  0.0017  0.0228  0.0116  0.0085  0.0141  0.0001 </r>
        <r>  0.0094  0.0087  0.0051  0.0014  0.0106  0.0024  0.0032  0.0456  0.0172 </r>
       </set>
       <set comment="band 17">
        <r>  0.0004  0.0010  0.0014  0.0061  0.0128  0.0217  0.0040  0.0005  0.0216 </r>
        <r>  0.0092  0.0286  0.0037  0.0057  0.0112  0.0017  0.0220  0.0083  0.0303 </r>
        <r>  0.0009  0.0363  0.0105  0.0012  0.0072  0.0106  0.0310  0.0110  0.0039 </r>
       </set>
       <set comment="band 18">
        <r>  0.0299  0.0076  0.0178  0.0033  0.0145  0.0050  0.0076  0.0140  0.0030 </r>
        <r>  0.0141  0.0071  0.0016  0.0040  0.0207  0.0191  0.0006  0.0046  0.0259 </r>
        <r>  0.0130  0.0016  0.0098  0.0008  0.0462  0.0172  0.0022  0.0141  0.0141 </r>
       </set>
       <set comment="band 19">
        <r>  0.0032  0.0282  0.0058  0.0011  0.0160  0.0162  0.0016  0.0154  0.0414 </r>
        <r>  0.0156  0.0049  0.0020  0.0006  0.0172  0.0244  0.0159  0.0374  0.0017 </r>
        <r>  0.0112  0.0157  0.0108  0.0043  0.0137  0.0132  0.0011  0.0111  0.0228 </r>
       </set>
       <set comment="band 20">
        <r>  0.0007  0.0066  0.0032  0.0037  0.0199  0.0171  0.0178  0.0646  0.0015 </r>
        <r>  0.0002  0.0106  0.0119  0.0014  0.0250  0.0009  0.0034  0.0189  0.0133 </r>
        <r>  0.0014  0.0049  0.0073  0.0152  0.0337  0.0053  0.0184  0.0173  0.0028 </r>
       </set>
       <set comment="band 21">
        <r>  0.0050  0.0077  0.0119  0.0290  0.0339  0.0172  0.0083  0.0011  0.0021 </r>
        <r>  0.0126  0.0047  0.0012  0.0024  0.0318  0.0255  0.0056  0.0614  0.0032 </r>
        <r>  0.0084  0.0239  0.0088  0.0167  0.0011  0.0255  0.0069  0.0335  0.0027 </r>
       </set>
       <set comment="band 22">
        <r>  0.0095  0.0030  0.0138  0.0115  0.0381  0.0117  0.0075  0.0479  0.0161 </r>
        <r>  0.0049  0.0081  0.0223  0.0156  0.0032  0.0029  0.0052  0.0261  0.0177 </r>
        <r>  0.0090  0.0004  0.0024  0.0136  0.0480  0.0069  0.0129  0.0232  0.0463 </r>
       </set>
       <set comment="band 23">
        <r>  0.0054  0.0022  0.0014  0.0069  0.0072  0.0089  0.0081  0.0119  0.0073 </r>
        <r>  0.0046  0.0087  0.0002  0.0159  0.0160  0.0028  0.0355  0.0050  0.0359 </r>
        <r>  0.0036  0.0072  0.0048  0.0026  0.0100  0.0067  0.0184  0.0200  0.0022 </r>
       </set>
       <set comment="band 24">
        <r>  0.0096  0.0009  0.0036  0.0020  0.0083  0.0017  0.0276  0.0196  0.0353 </r>
        <r>  0.0015  0.0091  0.0044  0.0041  0.0461  0.0013  0.0232  0.0080  0.0016 </r>
        <r>  0.0090  0.0002  0.0020  0.0027  0.0018  0.0241  0.0011  0.0203  0.0084 </r>
       </set>
       <set comment="band 25">
        <r>  0.0061  0.0260  0.0006  0.0006  0.0210  0.0028  0.0332  0.0128  0.0063 </r>
        <r>  0.0010  0.0168  0.0055  0.0012  0.0084  0.0067  0.0252  0.0010  0.0055 </r>
        <r>  0.0102  0.0171  0.0001  0.0003  0.0307  0.0278  0.0311  0.0029  0.0028 </r>
       </set>
       <set comment="band 26">
        <r>  0.0072  0.0088  0.0046  0.0083  0.0482  0.0486  0.0088  0.0082  0.0016 </r>
        <r>  0.0110  0.0122  0.0301  0.0099  0.0369  0.1034  0.0058  0.0077  0.0097 </r>
        <r>  0.0001  0.0068  0.0141  0.0111  0.0161  0.0134  0.0103  0.0177  0.0047 </r>
       </set>
       <set comment="band 27">
        <r>  0.0041  0.0027  0.0003  0.0121  0.0135  0.0285  0.0266  0.0010  0.0134 </r>
        <r>  0.0000  0.0090  0.0050  0.0104  0.0089  0.0254  0.0439  0.0032  0.0091 </r>
        <r>  0.0004  0.0199  0.0184  0.0126  0.0219  0.0113  0.0677  0.0012  0.0364 </r>
       </set>
       <set comment="band 28">
        <r>  0.0056  0.0078  0.0189  0.0050  0.0351  0.0279  0.0472  0.0018  0.0348 </r>
        <r>  0.0014  0.0039  0.0042  0.0087  0.0234  0.0427  0.0128  0.0062  0.0027 </r>
        <r>  0.0014  0.0098  0.0142  0.0042  0.0568  0.0405  0.0393  0.0050  0.0255 </r>
       </set>
       <set comment="band 29">
        <r>  0.0123  0.0121  0.0028  0.0015  0.0221  0.0096  0.0339  0.0158  0.0169 </r>
        <r>  0.0017  0.0032  0.0059  0.0000  0.0171  0.0208  0.0129  0.0652  0.0341 </r>
        <r>  0.0060  0.0109  0.0022  0.0025  0.0066  0.0668  0.0057  0.0531  0.0058 </r>
       </set>
       <set comment="band 30">
        <r>  0.0009  0.0184  0.0112  0.0013  0.0128  0.0427  0.0035  0.0052  0.0390 </r>
        <r>  0.0130  0.0102  0.0185  0.0013  0.0071  0.0621  0.0052  0.0081  0.0287 </r>
        <r>  0.0120  0.0008  0.0144  0.0013  0.0355  0.0923  0.0143  0.0191  0.0230 </r>
       </set>
       <set comment="band 31">
        <r>  0.0003  0.0014  0.0009  0.0000  0.0368  0.1046  0.0199  0.0133  0.0025 </r>
        <r>  0.0023  0.0183  0.0103  0.0054  0.0510  0.0213  0.0154  0.0011  0.0222 </r>
        <r>  0.0081  0.0071  0.0040  0.0041  0.0121  0.0030  0.0028  0.0011  0.0381 </r>
       </set>
       <set comment="band 32">
        <r>  0.0009  0.0079  0.0006  0.0046  0.0126  0.0281  0.0036  0.0176  0.0216 </r>
        <r>  0.0074  0.0069  0.0123  0.0239  0.0203  0.0490  0.0420  0.0283  0.0526 </r>
        <r>  0.0009  0.0120  0.0062  0.0205  0.0029  0.0322  0.0094  0.0290  0.0361 </r>
       </set>
      </set>
      <set comment="kpoint 52">
       <set comment="band 1">
        <r>  0.1871  0.0011  0.0021  0.0032  0.0001  0.0000  0.0000  0.0005  0.0000 </r>
        <r>  0.2988  0.0024  0.0010  0.0010  0.0002  0.0002  0.0001  0.0003  0.0001 </r>
        <r>  0.1677  0.0033  0.0019  0.0011  0.0001  0.0004  0.0000  0.0002  0.0001 </r>
       </set>
       <set comment="band 2">
        <r>  0.2700  0.0006  0.0024  0.0035  0.0001  0.0003  0.0000  0.0005  0.0001 </r>
        <r>  0.0969  0.0017  0.0070  0.0036  0.0000  0.0004  0.0000  0.0001  0.0001 </r>
        <r>  0.2987  0.0012  0.0021  0.0028  0.0001  0.0003  0.0000  0.0004  0.0001 </r>
       </set>
       <set comment="band 3">
        <r>  0.2083  0.0005  0.0018  0.0082  0.0000  0.0002  0.0000  0.0000  0.0001 </r>
        <r>  0.2680  0.0020  0.0002  0.0007  0.0001  0.0001  0.0000  0.0003  0.0000 </r>
        <r>  0.2001  0.0045  0.0015  0.0060  0.0000  0.0002  0.0000  0.0000  0.0001 </r>
       </set>
       <set comment="band 4">
        <r>  0.0066  0.0299  0.0554  0.0505  0.0003  0.0000  0.0000  0.0008  0.0002 </r>
        <r>  0.0002  0.0282  0.0039  0.0830  0.0001  0.0002  0.0000  0.0004  0.0005 </r>
        <r>  0.0052  0.0108  0.0789  0.0473  0.0002  0.0002  0.0000  0.0004  0.0002 </r>
       </set>
       <set comment="band 5">
        <r>  0.0045  0.0516  0.0472  0.0059  0.0009  0.0003  0.0002  0.0002  0.0001 </r>
        <r>  0.0150  0.0595  0.0695  0.0152  0.0007  0.0007  0.0001  0.0001  0.0003 </r>
        <r>  0.0056  0.1104  0.0389  0.0097  0.0005  0.0006  0.0000  0.0000  0.0003 </r>
       </set>
       <set comment="band 6">
        <r>  0.0052  0.0486  0.0534  0.0915  0.0005  0.0003  0.0000  0.0007  0.0004 </r>
        <r>  0.0163  0.0538  0.0895  0.0296  0.0008  0.0012  0.0000  0.0006  0.0001 </r>
        <r>  0.0066  0.0150  0.0174  0.0364  0.0010  0.0001  0.0000  0.0011  0.0007 </r>
       </set>
       <set comment="band 7">
        <r>  0.0144  0.0052  0.0194  0.0319  0.0011  0.0010  0.0005  0.0042  0.0002 </r>
        <r>  0.0150  0.0540  0.0628  0.0058  0.0006  0.0012  0.0003  0.0003  0.0003 </r>
        <r>  0.0023  0.0449  0.0508  0.1564  0.0005  0.0004  0.0006  0.0021  0.0000 </r>
       </set>
       <set comment="band 8">
        <r>  0.0139  0.0657  0.0869  0.0332  0.0006  0.0022  0.0007  0.0016  0.0004 </r>
        <r>  0.0063  0.0135  0.0371  0.1243  0.0014  0.0017  0.0004  0.0008  0.0008 </r>
        <r>  0.0022  0.0007  0.0802  0.0307  0.0001  0.0055  0.0002  0.0008  0.0005 </r>
       </set>
       <set comment="band 9">
        <r>  0.0176  0.1547  0.0151  0.0306  0.0003  0.0004  0.0003  0.0007  0.0000 </r>
        <r>  0.0109  0.0902  0.0192  0.0497  0.0004  0.0006  0.0005  0.0018  0.0003 </r>
        <r>  0.0399  0.0702  0.0020  0.0212  0.0004  0.0020  0.0013  0.0016  0.0005 </r>
       </set>
       <set comment="band 10">
        <r>  0.0083  0.0606  0.0038  0.0318  0.0018  0.0031  0.0033  0.0002  0.0008 </r>
        <r>  0.0168  0.1130  0.0321  0.0320  0.0008  0.0043  0.0052  0.0003  0.0003 </r>
        <r>  0.0106  0.2051  0.0250  0.0020  0.0002  0.0018  0.0021  0.0000  0.0001 </r>
       </set>
       <set comment="band 11">
        <r>  0.0100  0.0133  0.0821  0.1004  0.0005  0.0041  0.0005  0.0023  0.0005 </r>
        <r>  0.0020  0.0162  0.0189  0.0845  0.0002  0.0058  0.0019  0.0052  0.0005 </r>
        <r>  0.0058  0.0066  0.1824  0.0226  0.0014  0.0036  0.0013  0.0023  0.0013 </r>
       </set>
       <set comment="band 12">
        <r>  0.0001  0.0206  0.1351  0.0871  0.0012  0.0004  0.0011  0.0050  0.0008 </r>
        <r>  0.0010  0.0295  0.1342  0.0188  0.0004  0.0023  0.0005  0.0070  0.0015 </r>
        <r>  0.0013  0.0078  0.0179  0.1198  0.0012  0.0001  0.0015  0.0044  0.0009 </r>
       </set>
       <set comment="band 13">
        <r>  0.0014  0.0240  0.0037  0.0029  0.0154  0.0017  0.0133  0.0133  0.0107 </r>
        <r>  0.0008  0.0120  0.0269  0.0175  0.0092  0.0065  0.0082  0.0011  0.0004 </r>
        <r>  0.0020  0.0007  0.0004  0.0021  0.0204  0.0077  0.0071  0.0047  0.0052 </r>
       </set>
       <set comment="band 14">
        <r>  0.0009  0.0090  0.0015  0.0013  0.0067  0.0119  0.0040  0.0039  0.0043 </r>
        <r>  0.0009  0.0004  0.0085  0.0192  0.0207  0.0062  0.0120  0.0156  0.0175 </r>
        <r>  0.0007  0.0020  0.0123  0.0349  0.0090  0.0087  0.0110  0.0078  0.0082 </r>
       </set>
       <set comment="band 15">
        <r>  0.0033  0.0001  0.0002  0.0196  0.0062  0.0012  0.0346  0.0058  0.0245 </r>
        <r>  0.0036  0.0022  0.0009  0.0050  0.0065  0.0041  0.0228  0.0065  0.0158 </r>
        <r>  0.0021  0.0029  0.0040  0.0173  0.0012  0.0057  0.0349  0.0058  0.0139 </r>
       </set>
       <set comment="band 16">
        <r>  0.0084  0.0257  0.0045  0.0022  0.0312  0.0053  0.0001  0.0164  0.0051 </r>
        <r>  0.0172  0.0252  0.0156  0.0130  0.0172  0.0012  0.0048  0.0016  0.0146 </r>
        <r>  0.0164  0.0185  0.0022  0.0051  0.0197  0.0028  0.0010  0.0184  0.0098 </r>
       </set>
       <set comment="band 17">
        <r>  0.0038  0.0109  0.0047  0.0086  0.0024  0.0768  0.0004  0.0111  0.0016 </r>
        <r>  0.0004  0.0042  0.0036  0.0186  0.0019  0.0520  0.0012  0.0364  0.0116 </r>
        <r>  0.0019  0.0181  0.0030  0.0013  0.0027  0.0447  0.0019  0.0416  0.0113 </r>
       </set>
       <set comment="band 18">
        <r>  0.0114  0.0068  0.0058  0.0164  0.0135  0.0084  0.0464  0.0164  0.0024 </r>
        <r>  0.0017  0.0290  0.0112  0.0171  0.0024  0.0111  0.0122  0.0260  0.0189 </r>
        <r>  0.0100  0.0366  0.0010  0.0108  0.0206  0.0110  0.0001  0.0016  0.0047 </r>
       </set>
       <set comment="band 19">
        <r>  0.0130  0.0178  0.0038  0.0077  0.0037  0.0037  0.0058  0.0003  0.0069 </r>
        <r>  0.0015  0.0077  0.0020  0.0009  0.0257  0.0044  0.0634  0.0088  0.0028 </r>
        <r>  0.0033  0.0016  0.0012  0.0090  0.0185  0.0122  0.0250  0.0112  0.0673 </r>
       </set>
       <set comment="band 20">
        <r>  0.0028  0.0125  0.0001  0.0022  0.0197  0.0117  0.0057  0.0011  0.0613 </r>
        <r>  0.0072  0.0024  0.0025  0.0015  0.0002  0.0122  0.0091  0.0021  0.0163 </r>
        <r>  0.0029  0.0037  0.0024  0.0029  0.0374  0.0015  0.0735  0.0058  0.0208 </r>
       </set>
       <set comment="band 21">
        <r>  0.0098  0.0045  0.0058  0.0175  0.0050  0.0152  0.0345  0.0277  0.0354 </r>
        <r>  0.0157  0.0210  0.0014  0.0062  0.0210  0.0021  0.0050  0.0023  0.0370 </r>
        <r>  0.0218  0.0004  0.0042  0.0043  0.0004  0.0093  0.0118  0.0122  0.0012 </r>
       </set>
       <set comment="band 22">
        <r>  0.0155  0.0012  0.0091  0.0143  0.0475  0.0104  0.0083  0.0058  0.0119 </r>
        <r>  0.0142  0.0025  0.0038  0.0088  0.0610  0.0431  0.0075  0.0143  0.0088 </r>
        <r>  0.0122  0.0011  0.0059  0.0060  0.0211  0.0106  0.0067  0.0293  0.0016 </r>
       </set>
       <set comment="band 23">
        <r>  0.0067  0.0027  0.0011  0.0225  0.0059  0.0182  0.0135  0.0023  0.0563 </r>
        <r>  0.0025  0.0034  0.0091  0.0085  0.0139  0.0070  0.0094  0.0103  0.0157 </r>
        <r>  0.0030  0.0019  0.0076  0.0354  0.0231  0.0133  0.0038  0.0134  0.0416 </r>
       </set>
       <set comment="band 24">
        <r>  0.0015  0.0029  0.0020  0.0075  0.0187  0.0054  0.0576  0.0010  0.0529 </r>
        <r>  0.0047  0.0015  0.0090  0.0183  0.0092  0.0060  0.0567  0.0138  0.0770 </r>
        <r>  0.0006  0.0006  0.0043  0.0058  0.0093  0.0163  0.0000  0.0119  0.0116 </r>
       </set>
       <set comment="band 25">
        <r>  0.0006  0.0043  0.0102  0.0025  0.0072  0.0080  0.0145  0.0717  0.0004 </r>
        <r>  0.0022  0.0050  0.0003  0.0138  0.0019  0.0006  0.0101  0.0338  0.0257 </r>
        <r>  0.0030  0.0006  0.0161  0.0078  0.0038  0.0160  0.0270  0.0013  0.0508 </r>
       </set>
       <set comment="band 26">
        <r>  0.0024  0.0145  0.0299  0.0020  0.0072  0.0311  0.0033  0.0171  0.0014 </r>
        <r>  0.0020  0.0113  0.0079  0.0054  0.0087  0.0589  0.0145  0.0060  0.0084 </r>
        <r>  0.0007  0.0241  0.0060  0.0002  0.0275  0.0428  0.0300  0.0361  0.0119 </r>
       </set>
       <set comment="band 27">
        <r>  0.0004  0.0021  0.0013  0.0021  0.0022  0.0391  0.0153  0.0324  0.0225 </r>
        <r>  0.0048  0.0066  0.0198  0.0000  0.0077  0.0496  0.0133  0.0087  0.0408 </r>
        <r>  0.0030  0.0018  0.0256  0.0021  0.0086  0.0519  0.0227  0.0260  0.0425 </r>
       </set>
       <set comment="band 28">
        <r>  0.0048  0.0130  0.0100  0.0106  0.0207  0.0120  0.0060  0.0050  0.0159 </r>
        <r>  0.0019  0.0086  0.0024  0.0303  0.0057  0.0125  0.0058  0.0351  0.0114 </r>
        <r>  0.0001  0.0078  0.0082  0.0297  0.0001  0.0011  0.0010  0.0383  0.0396 </r>
       </set>
       <set comment="band 29">
        <r>  0.0038  0.0060  0.0196  0.0134  0.0196  0.0175  0.0094  0.0142  0.0249 </r>
        <r>  0.0002  0.0018  0.0025  0.0090  0.0561  0.0031  0.0077  0.0191  0.0052 </r>
        <r>  0.0001  0.0188  0.0090  0.0014  0.0136  0.0159  0.0207  0.0054  0.0026 </r>
       </set>
       <set comment="band 30">
        <r>  0.0026  0.0064  0.0016  0.0100  0.0837  0.0062  0.0204  0.1167  0.0135 </r>
        <r>  0.0222  0.0175  0.0063  0.0001  0.0352  0.0088  0.0104  0.0264  0.0169 </r>
        <r>  0.0045  0.0069  0.0137  0.0181  0.0858  0.0219  0.0009  0.0253  0.0118 </r>
       </set>
       <set comment="band 31">
        <r>  0.0081  0.0107  0.0031  0.0063  0.0075  0.0397  0.0047  0.0017  0.0071 </r>
        <r>  0.0014  0.0018  0.0156  0.0019  0.0311  0.0279  0.0233  0.0387  0.0339 </r>
        <r>  0.0166  0.0047  0.0019  0.0001  0.0055  0.1030  0.0105  0.0070  0.0062 </r>
       </set>
       <set comment="band 32">
        <r>  0.0032  0.0008  0.0130  0.0073  0.0717  0.0070  0.0452  0.0388  0.0172 </r>
        <r>  0.0015  0.0042  0.0010  0.0063  0.0503  0.0256  0.0810  0.0566  0.0254 </r>
        <r>  0.0003  0.0061  0.0010  0.0013  0.0437  0.0205  0.0916  0.0373  0.0240 </r>
       </set>
      </set>
      <set comment="kpoint 53">
       <set comment="band 1">
        <r>  0.3072  0.0013  0.0013  0.0028  0.0000  0.0003  0.0001  0.0001  0.0002 </r>
        <r>  0.1581  0.0042  0.0022  0.0008  0.0001  0.0004  0.0000  0.0002  0.0001 </r>
        <r>  0.1882  0.0036  0.0022  0.0012  0.0000  0.0004  0.0000  0.0002  0.0001 </r>
       </set>
       <set comment="band 2">
        <r>  0.0970  0.0035  0.0064  0.0009  0.0001  0.0002  0.0000  0.0005  0.0001 </r>
        <r>  0.3041  0.0024  0.0018  0.0009  0.0000  0.0006  0.0000  0.0001  0.0001 </r>
        <r>  0.2611  0.0029  0.0022  0.0004  0.0000  0.0007  0.0000  0.0001  0.0001 </r>
       </set>
       <set comment="band 3">
        <r>  0.2609  0.0000  0.0000  0.0015  0.0000  0.0005  0.0000  0.0000  0.0001 </r>
        <r>  0.2078  0.0086  0.0013  0.0014  0.0000  0.0003  0.0000  0.0001  0.0001 </r>
        <r>  0.2207  0.0089  0.0015  0.0002  0.0000  0.0002  0.0000  0.0001  0.0000 </r>
       </set>
       <set comment="band 4">
        <r>  0.0020  0.1112  0.0067  0.0010  0.0003  0.0001  0.0001  0.0001  0.0000 </r>
        <r>  0.0028  0.0690  0.0648  0.0003  0.0000  0.0001  0.0000  0.0001  0.0002 </r>
        <r>  0.0030  0.0706  0.0589  0.0002  0.0000  0.0002  0.0001  0.0001  0.0003 </r>
       </set>
       <set comment="band 5">
        <r>  0.0102  0.0105  0.0844  0.0528  0.0003  0.0001  0.0000  0.0014  0.0007 </r>
        <r>  0.0008  0.0454  0.0517  0.0164  0.0002  0.0001  0.0000  0.0001  0.0009 </r>
        <r>  0.0036  0.0281  0.0568  0.0792  0.0003  0.0001  0.0000  0.0005  0.0008 </r>
       </set>
       <set comment="band 6">
        <r>  0.0175  0.0025  0.0708  0.1009  0.0002  0.0001  0.0001  0.0016  0.0007 </r>
        <r>  0.0054  0.0176  0.0371  0.1361  0.0004  0.0005  0.0000  0.0008  0.0007 </r>
        <r>  0.0097  0.0161  0.0231  0.0254  0.0000  0.0008  0.0000  0.0007  0.0012 </r>
       </set>
       <set comment="band 7">
        <r>  0.0126  0.0021  0.0483  0.0620  0.0000  0.0002  0.0003  0.0012  0.0008 </r>
        <r>  0.0169  0.0044  0.0139  0.0234  0.0002  0.0010  0.0005  0.0039  0.0009 </r>
        <r>  0.0005  0.0587  0.0592  0.1537  0.0000  0.0009  0.0004  0.0001  0.0003 </r>
       </set>
       <set comment="band 8">
        <r>  0.0131  0.0098  0.0620  0.0760  0.0004  0.0004  0.0001  0.0019  0.0026 </r>
        <r>  0.0033  0.0308  0.0893  0.1671  0.0000  0.0021  0.0003  0.0002  0.0010 </r>
        <r>  0.0068  0.0045  0.0365  0.0134  0.0005  0.0025  0.0001  0.0052  0.0012 </r>
       </set>
       <set comment="band 9">
        <r>  0.0020  0.2322  0.0146  0.0086  0.0000  0.0011  0.0002  0.0005  0.0001 </r>
        <r>  0.0232  0.0956  0.0139  0.0065  0.0000  0.0050  0.0009  0.0002  0.0001 </r>
        <r>  0.0330  0.0658  0.0275  0.0119  0.0003  0.0044  0.0016  0.0002  0.0000 </r>
       </set>
       <set comment="band 10">
        <r>  0.0198  0.0141  0.0357  0.0496  0.0004  0.0018  0.0052  0.0023  0.0015 </r>
        <r>  0.0140  0.0384  0.0621  0.0381  0.0002  0.0022  0.0036  0.0011  0.0023 </r>
        <r>  0.0208  0.1199  0.0097  0.1029  0.0003  0.0009  0.0023  0.0007  0.0007 </r>
       </set>
       <set comment="band 11">
        <r>  0.0042  0.0251  0.0298  0.0582  0.0008  0.0100  0.0001  0.0043  0.0003 </r>
        <r>  0.0121  0.0795  0.0396  0.0081  0.0006  0.0046  0.0001  0.0022  0.0022 </r>
        <r>  0.0005  0.0074  0.1666  0.0672  0.0003  0.0068  0.0004  0.0017  0.0014 </r>
       </set>
       <set comment="band 12">
        <r>  0.0035  0.0094  0.1086  0.0626  0.0006  0.0032  0.0028  0.0047  0.0024 </r>
        <r>  0.0008  0.0562  0.1227  0.0601  0.0006  0.0007  0.0001  0.0025  0.0006 </r>
        <r>  0.0014  0.0552  0.0451  0.0310  0.0002  0.0017  0.0036  0.0012  0.0043 </r>
       </set>
       <set comment="band 13">
        <r>  0.0008  0.0138  0.0218  0.0170  0.0010  0.0049  0.0072  0.0029  0.0138 </r>
        <r>  0.0014  0.0003  0.0054  0.0484  0.0000  0.0118  0.0132  0.0000  0.0229 </r>
        <r>  0.0018  0.0045  0.0029  0.0091  0.0008  0.0035  0.0063  0.0047  0.0211 </r>
       </set>
       <set comment="band 14">
        <r>  0.0005  0.0183  0.0228  0.0045  0.0014  0.0115  0.0159  0.0131  0.0247 </r>
        <r>  0.0001  0.0086  0.0009  0.0033  0.0019  0.0052  0.0111  0.0203  0.0100 </r>
        <r>  0.0004  0.0196  0.0177  0.0088  0.0012  0.0087  0.0174  0.0073  0.0154 </r>
       </set>
       <set comment="band 15">
        <r>  0.0005  0.0391  0.0061  0.0002  0.0132  0.0015  0.0282  0.0098  0.0027 </r>
        <r>  0.0017  0.0101  0.0016  0.0003  0.0246  0.0061  0.0051  0.0043  0.0079 </r>
        <r>  0.0005  0.0179  0.0027  0.0010  0.0221  0.0146  0.0083  0.0072  0.0067 </r>
       </set>
       <set comment="band 16">
        <r>  0.0029  0.0078  0.0011  0.0084  0.0270  0.0156  0.0139  0.0018  0.0116 </r>
        <r>  0.0049  0.0134  0.0030  0.0118  0.0137  0.0017  0.0357  0.0067  0.0051 </r>
        <r>  0.0052  0.0181  0.0006  0.0053  0.0167  0.0036  0.0100  0.0297  0.0108 </r>
       </set>
       <set comment="band 17">
        <r>  0.0125  0.0038  0.0014  0.0062  0.0142  0.0119  0.0003  0.0232  0.0068 </r>
        <r>  0.0084  0.0242  0.0007  0.0044  0.0081  0.0030  0.0022  0.0283  0.0242 </r>
        <r>  0.0144  0.0028  0.0025  0.0015  0.0040  0.0037  0.0423  0.0441  0.0088 </r>
       </set>
       <set comment="band 18">
        <r>  0.0030  0.0180  0.0029  0.0018  0.0254  0.0021  0.0197  0.0416  0.0050 </r>
        <r>  0.0090  0.0227  0.0013  0.0007  0.0275  0.0013  0.0225  0.0363  0.0022 </r>
        <r>  0.0026  0.0169  0.0031  0.0062  0.0337  0.0070  0.0179  0.0169  0.0002 </r>
       </set>
       <set comment="band 19">
        <r>  0.0009  0.0101  0.0058  0.0149  0.0314  0.0078  0.0255  0.0167  0.0144 </r>
        <r>  0.0115  0.0247  0.0095  0.0078  0.0413  0.0085  0.0358  0.0454  0.0029 </r>
        <r>  0.0051  0.0065  0.0015  0.0083  0.0123  0.0038  0.0129  0.0075  0.0022 </r>
       </set>
       <set comment="band 20">
        <r>  0.0108  0.0223  0.0272  0.0132  0.0052  0.0015  0.0195  0.0129  0.0060 </r>
        <r>  0.0091  0.0086  0.0067  0.0011  0.0469  0.0045  0.0390  0.0083  0.0266 </r>
        <r>  0.0038  0.0016  0.0058  0.0214  0.0326  0.0063  0.0013  0.0041  0.0224 </r>
       </set>
       <set comment="band 21">
        <r>  0.0001  0.0229  0.0054  0.0089  0.0119  0.0069  0.0090  0.0011  0.0046 </r>
        <r>  0.0065  0.0012  0.0000  0.0007  0.0432  0.0382  0.0061  0.0018  0.0005 </r>
        <r>  0.0060  0.0514  0.0015  0.0006  0.0329  0.0039  0.0061  0.0107  0.0145 </r>
       </set>
       <set comment="band 22">
        <r>  0.0034  0.0085  0.0033  0.0061  0.0515  0.0091  0.0290  0.0214  0.0067 </r>
        <r>  0.0101  0.0097  0.0002  0.0005  0.0031  0.0079  0.0091  0.0182  0.0004 </r>
        <r>  0.0096  0.0003  0.0066  0.0072  0.0685  0.0107  0.0399  0.0052  0.0032 </r>
       </set>
       <set comment="band 23">
        <r>  0.0181  0.0178  0.0020  0.0024  0.0538  0.0364  0.0003  0.0077  0.0115 </r>
        <r>  0.0010  0.0317  0.0056  0.0106  0.0296  0.0259  0.0080  0.0009  0.0093 </r>
        <r>  0.0051  0.0415  0.0170  0.0009  0.0223  0.0010  0.0161  0.0099  0.0025 </r>
       </set>
       <set comment="band 24">
        <r>  0.0068  0.0034  0.0071  0.0135  0.0079  0.0568  0.0006  0.0493  0.0174 </r>
        <r>  0.0015  0.0034  0.0248  0.0199  0.0028  0.0222  0.0077  0.0343  0.0129 </r>
        <r>  0.0099  0.0009  0.0167  0.0122  0.0056  0.0671  0.0127  0.0567  0.0157 </r>
       </set>
       <set comment="band 25">
        <r>  0.0238  0.0062  0.0015  0.0081  0.0216  0.0325  0.0255  0.0125  0.0752 </r>
        <r>  0.0005  0.0134  0.0114  0.0086  0.0315  0.0066  0.0051  0.0009  0.0004 </r>
        <r>  0.0152  0.0069  0.0040  0.0023  0.0310  0.0418  0.0137  0.0096  0.0370 </r>
       </set>
       <set comment="band 26">
        <r>  0.0072  0.0170  0.0139  0.0001  0.0138  0.0184  0.0029  0.0017  0.0124 </r>
        <r>  0.0198  0.0076  0.0142  0.0014  0.0059  0.0497  0.0137  0.0064  0.0782 </r>
        <r>  0.0099  0.0041  0.0049  0.0043  0.0196  0.0859  0.0087  0.0067  0.0140 </r>
       </set>
       <set comment="band 27">
        <r>  0.0005  0.0043  0.0031  0.0012  0.0468  0.0069  0.0217  0.0044  0.0007 </r>
        <r>  0.0015  0.0069  0.0006  0.0023  0.0422  0.0565  0.0174  0.0185  0.0170 </r>
        <r>  0.0060  0.0040  0.0139  0.0006  0.0138  0.0002  0.0099  0.0061  0.0600 </r>
       </set>
       <set comment="band 28">
        <r>  0.0006  0.0004  0.0014  0.0003  0.0036  0.0112  0.0293  0.0158  0.0248 </r>
        <r>  0.0007  0.0021  0.0031  0.0032  0.0026  0.0038  0.0134  0.0033  0.0109 </r>
        <r>  0.0002  0.0070  0.0033  0.0017  0.0039  0.0234  0.0059  0.0020  0.0166 </r>
       </set>
       <set comment="band 29">
        <r>  0.0051  0.0113  0.0144  0.0154  0.0064  0.0368  0.0520  0.0127  0.0096 </r>
        <r>  0.0108  0.0136  0.0317  0.0103  0.0061  0.0977  0.0036  0.0051  0.0427 </r>
        <r>  0.0010  0.0027  0.0158  0.0129  0.0001  0.0025  0.0480  0.0131  0.0004 </r>
       </set>
       <set comment="band 30">
        <r>  0.0011  0.0056  0.0095  0.0046  0.0545  0.0318  0.0572  0.0016  0.0037 </r>
        <r>  0.0000  0.0015  0.0066  0.0122  0.0402  0.0024  0.0389  0.0130  0.0029 </r>
        <r>  0.0005  0.0033  0.0141  0.0185  0.0288  0.0753  0.0270  0.0061  0.0195 </r>
       </set>
       <set comment="band 31">
        <r>  0.0014  0.0043  0.0008  0.0080  0.0010  0.0381  0.0044  0.0051  0.1064 </r>
        <r>  0.0002  0.0036  0.0077  0.0026  0.0089  0.0210  0.0545  0.0426  0.0061 </r>
        <r>  0.0012  0.0023  0.0136  0.0077  0.0174  0.0166  0.0217  0.0189  0.0730 </r>
       </set>
       <set comment="band 32">
        <r>  0.0118  0.0083  0.0057  0.0186  0.0713  0.0574  0.0041  0.0549  0.0146 </r>
        <r>  0.0053  0.0084  0.0111  0.0126  0.0825  0.0592  0.0110  0.0188  0.0054 </r>
        <r>  0.0050  0.0098  0.0026  0.0232  0.0879  0.0135  0.0358  0.0539  0.0030 </r>
       </set>
      </set>
      <set comment="kpoint 54">
       <set comment="band 1">
        <r>  0.2400  0.0018  0.0020  0.0029  0.0001  0.0001  0.0000  0.0003  0.0001 </r>
        <r>  0.2496  0.0033  0.0016  0.0012  0.0001  0.0003  0.0001  0.0002  0.0001 </r>
        <r>  0.1612  0.0042  0.0020  0.0008  0.0001  0.0004  0.0000  0.0002  0.0001 </r>
       </set>
       <set comment="band 2">
        <r>  0.1902  0.0012  0.0042  0.0023  0.0001  0.0003  0.0000  0.0005  0.0001 </r>
        <r>  0.1733  0.0018  0.0045  0.0017  0.0000  0.0006  0.0000  0.0001  0.0001 </r>
        <r>  0.3015  0.0013  0.0024  0.0019  0.0000  0.0005  0.0000  0.0002  0.0001 </r>
       </set>
       <set comment="band 3">
        <r>  0.2371  0.0001  0.0005  0.0047  0.0000  0.0003  0.0000  0.0000  0.0001 </r>
        <r>  0.2466  0.0053  0.0007  0.0006  0.0001  0.0001  0.0000  0.0003  0.0000 </r>
        <r>  0.2079  0.0062  0.0006  0.0038  0.0000  0.0003  0.0000  0.0001  0.0001 </r>
       </set>
       <set comment="band 4">
        <r>  0.0055  0.1069  0.0014  0.0130  0.0005  0.0000  0.0001  0.0002  0.0000 </r>
        <r>  0.0032  0.0818  0.0401  0.0070  0.0002  0.0004  0.0001  0.0003  0.0007 </r>
        <r>  0.0003  0.0469  0.0957  0.0034  0.0001  0.0003  0.0000  0.0002  0.0003 </r>
       </set>
       <set comment="band 5">
        <r>  0.0039  0.0032  0.0959  0.0371  0.0005  0.0001  0.0000  0.0017  0.0004 </r>
        <r>  0.0038  0.0005  0.0313  0.1011  0.0003  0.0000  0.0000  0.0006  0.0007 </r>
        <r>  0.0078  0.0787  0.0367  0.0211  0.0005  0.0000  0.0000  0.0003  0.0002 </r>
       </set>
       <set comment="band 6">
        <r>  0.0091  0.0195  0.0530  0.0879  0.0001  0.0004  0.0001  0.0000  0.0006 </r>
        <r>  0.0105  0.0448  0.0753  0.0175  0.0003  0.0008  0.0000  0.0002  0.0001 </r>
        <r>  0.0016  0.0084  0.0054  0.0984  0.0004  0.0002  0.0000  0.0006  0.0011 </r>
       </set>
       <set comment="band 7">
        <r>  0.0137  0.0001  0.0645  0.0579  0.0003  0.0005  0.0008  0.0037  0.0001 </r>
        <r>  0.0053  0.0536  0.0692  0.0794  0.0000  0.0023  0.0006  0.0001  0.0003 </r>
        <r>  0.0113  0.0103  0.0385  0.0673  0.0003  0.0021  0.0009  0.0037  0.0003 </r>
       </set>
       <set comment="band 8">
        <r>  0.0214  0.0414  0.0107  0.0614  0.0008  0.0014  0.0003  0.0021  0.0014 </r>
        <r>  0.0066  0.0026  0.0236  0.0789  0.0009  0.0008  0.0001  0.0043  0.0005 </r>
        <r>  0.0110  0.0297  0.0961  0.1540  0.0001  0.0004  0.0001  0.0005  0.0000 </r>
       </set>
       <set comment="band 9">
        <r>  0.0010  0.2104  0.0677  0.0200  0.0001  0.0002  0.0001  0.0000  0.0001 </r>
        <r>  0.0261  0.0915  0.0294  0.0112  0.0012  0.0030  0.0008  0.0001  0.0004 </r>
        <r>  0.0177  0.0690  0.0065  0.0045  0.0002  0.0067  0.0015  0.0003  0.0010 </r>
       </set>
       <set comment="band 10">
        <r>  0.0213  0.0297  0.0119  0.0353  0.0009  0.0034  0.0026  0.0015  0.0004 </r>
        <r>  0.0243  0.1200  0.0147  0.0684  0.0001  0.0024  0.0031  0.0007  0.0001 </r>
        <r>  0.0190  0.1432  0.0320  0.0032  0.0002  0.0018  0.0017  0.0004  0.0007 </r>
       </set>
       <set comment="band 11">
        <r>  0.0043  0.0103  0.0645  0.0773  0.0008  0.0070  0.0003  0.0024  0.0021 </r>
        <r>  0.0000  0.0049  0.1528  0.0574  0.0001  0.0069  0.0000  0.0045  0.0019 </r>
        <r>  0.0086  0.0323  0.0845  0.0123  0.0013  0.0034  0.0003  0.0022  0.0024 </r>
       </set>
       <set comment="band 12">
        <r>  0.0025  0.0172  0.1120  0.0830  0.0008  0.0021  0.0027  0.0055  0.0010 </r>
        <r>  0.0005  0.0431  0.0409  0.0565  0.0004  0.0019  0.0028  0.0030  0.0012 </r>
        <r>  0.0025  0.0353  0.0995  0.0873  0.0007  0.0010  0.0004  0.0044  0.0002 </r>
       </set>
       <set comment="band 13">
        <r>  0.0019  0.0074  0.0021  0.0067  0.0057  0.0072  0.0046  0.0073  0.0202 </r>
        <r>  0.0021  0.0005  0.0067  0.0054  0.0022  0.0033  0.0073  0.0049  0.0224 </r>
        <r>  0.0011  0.0001  0.0001  0.0447  0.0034  0.0162  0.0073  0.0002  0.0204 </r>
       </set>
       <set comment="band 14">
        <r>  0.0006  0.0156  0.0117  0.0001  0.0070  0.0026  0.0099  0.0083  0.0070 </r>
        <r>  0.0024  0.0160  0.0031  0.0017  0.0155  0.0062  0.0099  0.0088  0.0093 </r>
        <r>  0.0021  0.0057  0.0006  0.0043  0.0217  0.0003  0.0155  0.0116  0.0119 </r>
       </set>
       <set comment="band 15">
        <r>  0.0027  0.0064  0.0022  0.0009  0.0222  0.0022  0.0432  0.0060  0.0080 </r>
        <r>  0.0019  0.0026  0.0003  0.0079  0.0173  0.0107  0.0271  0.0046  0.0008 </r>
        <r>  0.0018  0.0040  0.0075  0.0042  0.0047  0.0007  0.0270  0.0126  0.0008 </r>
       </set>
       <set comment="band 16">
        <r>  0.0002  0.0304  0.0109  0.0108  0.0035  0.0208  0.0030  0.0105  0.0155 </r>
        <r>  0.0024  0.0244  0.0237  0.0105  0.0064  0.0044  0.0034  0.0135  0.0302 </r>
        <r>  0.0004  0.0133  0.0018  0.0019  0.0125  0.0067  0.0101  0.0060  0.0092 </r>
       </set>
       <set comment="band 17">
        <r>  0.0044  0.0019  0.0039  0.0071  0.0178  0.0096  0.0059  0.0030  0.0109 </r>
        <r>  0.0071  0.0066  0.0033  0.0066  0.0026  0.0015  0.0558  0.0330  0.0018 </r>
        <r>  0.0034  0.0306  0.0024  0.0117  0.0099  0.0033  0.0111  0.0119  0.0311 </r>
       </set>
       <set comment="band 18">
        <r>  0.0092  0.0199  0.0017  0.0147  0.0209  0.0017  0.0411  0.0385  0.0084 </r>
        <r>  0.0047  0.0105  0.0039  0.0042  0.0216  0.0102  0.0017  0.0304  0.0072 </r>
        <r>  0.0181  0.0212  0.0022  0.0053  0.0335  0.0061  0.0118  0.0115  0.0036 </r>
       </set>
       <set comment="band 19">
        <r>  0.0056  0.0093  0.0081  0.0149  0.0263  0.0410  0.0037  0.0192  0.0018 </r>
        <r>  0.0037  0.0082  0.0195  0.0110  0.0312  0.0370  0.0154  0.0222  0.0094 </r>
        <r>  0.0093  0.0018  0.0110  0.0048  0.0047  0.0584  0.0053  0.0445  0.0039 </r>
       </set>
       <set comment="band 20">
        <r>  0.0102  0.0237  0.0087  0.0007  0.0041  0.0321  0.0042  0.0007  0.0092 </r>
        <r>  0.0040  0.0173  0.0022  0.0100  0.0046  0.0156  0.0014  0.0024  0.0004 </r>
        <r>  0.0048  0.0172  0.0017  0.0005  0.0357  0.0001  0.0649  0.0236  0.0411 </r>
       </set>
       <set comment="band 21">
        <r>  0.0045  0.0065  0.0146  0.0063  0.0264  0.0058  0.0090  0.0142  0.0045 </r>
        <r>  0.0139  0.0096  0.0029  0.0018  0.0587  0.0256  0.0181  0.0019  0.0199 </r>
        <r>  0.0046  0.0077  0.0036  0.0007  0.0367  0.0069  0.0134  0.0453  0.0018 </r>
       </set>
       <set comment="band 22">
        <r>  0.0186  0.0136  0.0005  0.0117  0.0336  0.0067  0.0271  0.0122  0.0662 </r>
        <r>  0.0083  0.0342  0.0030  0.0060  0.0059  0.0083  0.0070  0.0077  0.0283 </r>
        <r>  0.0196  0.0031  0.0062  0.0022  0.0063  0.0122  0.0089  0.0019  0.0032 </r>
       </set>
       <set comment="band 23">
        <r>  0.0001  0.0082  0.0208  0.0028  0.0200  0.0329  0.0141  0.0507  0.0026 </r>
        <r>  0.0034  0.0194  0.0028  0.0095  0.0424  0.0048  0.0135  0.0401  0.0014 </r>
        <r>  0.0029  0.0108  0.0174  0.0014  0.0094  0.0177  0.0029  0.0164  0.0030 </r>
       </set>
       <set comment="band 24">
        <r>  0.0230  0.0094  0.0055  0.0221  0.0213  0.0042  0.0108  0.0379  0.0015 </r>
        <r>  0.0228  0.0079  0.0124  0.0182  0.0148  0.0131  0.0006  0.0340  0.0139 </r>
        <r>  0.0040  0.0189  0.0111  0.0382  0.0165  0.0159  0.0007  0.0164  0.0266 </r>
       </set>
       <set comment="band 25">
        <r>  0.0012  0.0100  0.0015  0.0001  0.0084  0.0549  0.0031  0.0082  0.0110 </r>
        <r>  0.0044  0.0098  0.0182  0.0100  0.0017  0.0719  0.0088  0.0105  0.0322 </r>
        <r>  0.0031  0.0061  0.0243  0.0085  0.0503  0.0296  0.0032  0.0222  0.0200 </r>
       </set>
       <set comment="band 26">
        <r>  0.0015  0.0047  0.0162  0.0052  0.0031  0.0159  0.0115  0.0079  0.0617 </r>
        <r>  0.0058  0.0038  0.0093  0.0044  0.0056  0.0495  0.0095  0.0010  0.0585 </r>
        <r>  0.0049  0.0135  0.0053  0.0037  0.0181  0.0609  0.0009  0.0048  0.0282 </r>
       </set>
       <set comment="band 27">
        <r>  0.0004  0.0019  0.0049  0.0408  0.0015  0.0178  0.0348  0.0131  0.0658 </r>
        <r>  0.0002  0.0005  0.0018  0.0036  0.0025  0.0206  0.0992  0.0026  0.0114 </r>
        <r>  0.0008  0.0085  0.0084  0.0092  0.0020  0.0269  0.0150  0.0023  0.0628 </r>
       </set>
       <set comment="band 28">
        <r>  0.0008  0.0105  0.0002  0.0006  0.0424  0.0079  0.0207  0.0058  0.0275 </r>
        <r>  0.0041  0.0044  0.0151  0.0067  0.0502  0.0155  0.0249  0.0024  0.0173 </r>
        <r>  0.0005  0.0043  0.0059  0.0161  0.0275  0.0452  0.0380  0.0007  0.0251 </r>
       </set>
       <set comment="band 29">
        <r>  0.0056  0.0042  0.0031  0.0010  0.0521  0.0144  0.0736  0.0000  0.0103 </r>
        <r>  0.0014  0.0039  0.0007  0.0252  0.0569  0.0322  0.0064  0.0086  0.0852 </r>
        <r>  0.0037  0.0036  0.0007  0.0001  0.0231  0.0064  0.0101  0.0077  0.0146 </r>
       </set>
       <set comment="band 30">
        <r>  0.0003  0.0023  0.0072  0.0069  0.0108  0.0048  0.0111  0.0221  0.0228 </r>
        <r>  0.0001  0.0031  0.0018  0.0106  0.0084  0.0005  0.0166  0.0105  0.0100 </r>
        <r>  0.0026  0.0032  0.0050  0.0181  0.0032  0.0110  0.0662  0.0315  0.0392 </r>
       </set>
       <set comment="band 31">
        <r>  0.0106  0.0041  0.0061  0.0024  0.0559  0.0297  0.0311  0.0689  0.0327 </r>
        <r>  0.0087  0.0086  0.0004  0.0199  0.0088  0.0020  0.0313  0.0625  0.0272 </r>
        <r>  0.0020  0.0078  0.0171  0.0005  0.0239  0.0172  0.0328  0.0005  0.0147 </r>
       </set>
       <set comment="band 32">
        <r>  0.0053  0.0213  0.0030  0.0067  0.0517  0.0104  0.0126  0.0112  0.0194 </r>
        <r>  0.0038  0.0044  0.0062  0.0032  0.0866  0.0084  0.0019  0.0501  0.0216 </r>
        <r>  0.0098  0.0034  0.0019  0.0230  0.0850  0.0521  0.0036  0.0499  0.0426 </r>
       </set>
      </set>
      <set comment="kpoint 55">
       <set comment="band 1">
        <r>  0.1914  0.0011  0.0018  0.0043  0.0001  0.0001  0.0000  0.0005  0.0000 </r>
        <r>  0.2749  0.0027  0.0013  0.0023  0.0001  0.0003  0.0001  0.0002  0.0001 </r>
        <r>  0.1952  0.0047  0.0017  0.0007  0.0001  0.0003  0.0001  0.0003  0.0000 </r>
       </set>
       <set comment="band 2">
        <r>  0.2667  0.0012  0.0023  0.0025  0.0001  0.0002  0.0000  0.0006  0.0000 </r>
        <r>  0.1451  0.0022  0.0045  0.0021  0.0001  0.0004  0.0000  0.0004  0.0001 </r>
        <r>  0.2603  0.0004  0.0024  0.0031  0.0001  0.0005  0.0000  0.0003  0.0001 </r>
       </set>
       <set comment="band 3">
        <r>  0.2133  0.0002  0.0006  0.0071  0.0000  0.0003  0.0000  0.0000  0.0001 </r>
        <r>  0.2506  0.0036  0.0001  0.0003  0.0001  0.0001  0.0000  0.0003  0.0000 </r>
        <r>  0.2165  0.0029  0.0006  0.0048  0.0000  0.0003  0.0000  0.0001  0.0001 </r>
       </set>
       <set comment="band 4">
        <r>  0.0034  0.0358  0.0520  0.0521  0.0002  0.0000  0.0000  0.0006  0.0002 </r>
        <r>  0.0010  0.0139  0.0103  0.0939  0.0000  0.0000  0.0000  0.0001  0.0008 </r>
        <r>  0.0026  0.0215  0.0756  0.0354  0.0002  0.0001  0.0000  0.0004  0.0001 </r>
       </set>
       <set comment="band 5">
        <r>  0.0006  0.0435  0.0635  0.0090  0.0008  0.0001  0.0000  0.0001  0.0000 </r>
        <r>  0.0025  0.0598  0.0608  0.0201  0.0006  0.0008  0.0000  0.0002  0.0000 </r>
        <r>  0.0022  0.0966  0.0320  0.0214  0.0008  0.0004  0.0000  0.0000  0.0002 </r>
       </set>
       <set comment="band 6">
        <r>  0.0052  0.0486  0.0247  0.0718  0.0005  0.0005  0.0000  0.0003  0.0003 </r>
        <r>  0.0106  0.0580  0.0730  0.0156  0.0005  0.0004  0.0000  0.0003  0.0001 </r>
        <r>  0.0051  0.0173  0.0298  0.0590  0.0002  0.0000  0.0000  0.0006  0.0006 </r>
       </set>
       <set comment="band 7">
        <r>  0.0100  0.0205  0.0569  0.0370  0.0008  0.0004  0.0007  0.0063  0.0002 </r>
        <r>  0.0133  0.0514  0.0908  0.0016  0.0001  0.0029  0.0006  0.0014  0.0005 </r>
        <r>  0.0044  0.0150  0.0667  0.1141  0.0006  0.0017  0.0006  0.0029  0.0001 </r>
       </set>
       <set comment="band 8">
        <r>  0.0264  0.0483  0.0630  0.0458  0.0002  0.0024  0.0009  0.0013  0.0004 </r>
        <r>  0.0080  0.0267  0.0037  0.1488  0.0008  0.0015  0.0003  0.0021  0.0005 </r>
        <r>  0.0100  0.0119  0.0618  0.0754  0.0002  0.0032  0.0003  0.0016  0.0002 </r>
       </set>
       <set comment="band 9">
        <r>  0.0015  0.2044  0.0279  0.0321  0.0002  0.0005  0.0002  0.0005  0.0001 </r>
        <r>  0.0148  0.0853  0.0328  0.0460  0.0009  0.0016  0.0004  0.0006  0.0004 </r>
        <r>  0.0273  0.0773  0.0034  0.0027  0.0003  0.0039  0.0015  0.0011  0.0009 </r>
       </set>
       <set comment="band 10">
        <r>  0.0206  0.0011  0.0157  0.0379  0.0012  0.0040  0.0028  0.0008  0.0012 </r>
        <r>  0.0272  0.0781  0.0653  0.0318  0.0003  0.0025  0.0032  0.0008  0.0005 </r>
        <r>  0.0209  0.2026  0.0266  0.0017  0.0001  0.0016  0.0021  0.0003  0.0004 </r>
       </set>
       <set comment="band 11">
        <r>  0.0124  0.0174  0.0667  0.0860  0.0006  0.0056  0.0005  0.0016  0.0006 </r>
        <r>  0.0013  0.0424  0.0212  0.0504  0.0013  0.0058  0.0009  0.0052  0.0004 </r>
        <r>  0.0061  0.0144  0.1733  0.0383  0.0010  0.0066  0.0004  0.0014  0.0008 </r>
       </set>
       <set comment="band 12">
        <r>  0.0010  0.0265  0.1223  0.0820  0.0008  0.0012  0.0000  0.0066  0.0013 </r>
        <r>  0.0032  0.0385  0.1238  0.0398  0.0002  0.0029  0.0008  0.0062  0.0017 </r>
        <r>  0.0014  0.0070  0.0177  0.0951  0.0010  0.0002  0.0007  0.0065  0.0011 </r>
       </set>
       <set comment="band 13">
        <r>  0.0011  0.0324  0.0010  0.0063  0.0183  0.0038  0.0110  0.0113  0.0079 </r>
        <r>  0.0012  0.0115  0.0042  0.0021  0.0184  0.0084  0.0081  0.0023  0.0014 </r>
        <r>  0.0033  0.0042  0.0012  0.0009  0.0224  0.0064  0.0073  0.0054  0.0056 </r>
       </set>
       <set comment="band 14">
        <r>  0.0001  0.0027  0.0010  0.0093  0.0054  0.0090  0.0015  0.0071  0.0165 </r>
        <r>  0.0017  0.0075  0.0055  0.0183  0.0119  0.0035  0.0000  0.0187  0.0205 </r>
        <r>  0.0001  0.0000  0.0044  0.0551  0.0014  0.0119  0.0027  0.0025  0.0278 </r>
       </set>
       <set comment="band 15">
        <r>  0.0025  0.0085  0.0018  0.0082  0.0179  0.0086  0.0030  0.0012  0.0111 </r>
        <r>  0.0003  0.0110  0.0051  0.0313  0.0042  0.0045  0.0206  0.0012  0.0250 </r>
        <r>  0.0014  0.0134  0.0045  0.0000  0.0221  0.0013  0.0093  0.0147  0.0038 </r>
       </set>
       <set comment="band 16">
        <r>  0.0022  0.0045  0.0008  0.0079  0.0157  0.0042  0.0511  0.0037  0.0091 </r>
        <r>  0.0039  0.0026  0.0025  0.0004  0.0174  0.0070  0.0328  0.0028  0.0031 </r>
        <r>  0.0020  0.0036  0.0040  0.0016  0.0044  0.0015  0.0382  0.0079  0.0040 </r>
       </set>
       <set comment="band 17">
        <r>  0.0019  0.0147  0.0014  0.0048  0.0058  0.0058  0.0121  0.0045  0.0213 </r>
        <r>  0.0012  0.0036  0.0029  0.0017  0.0200  0.0018  0.0190  0.0158  0.0064 </r>
        <r>  0.0004  0.0105  0.0046  0.0023  0.0237  0.0061  0.0441  0.0028  0.0098 </r>
       </set>
       <set comment="band 18">
        <r>  0.0004  0.0013  0.0059  0.0047  0.0162  0.0073  0.0391  0.0054  0.0104 </r>
        <r>  0.0011  0.0049  0.0077  0.0061  0.0031  0.0045  0.0388  0.0012  0.0257 </r>
        <r>  0.0004  0.0010  0.0000  0.0023  0.0087  0.0124  0.0137  0.0042  0.0251 </r>
       </set>
       <set comment="band 19">
        <r>  0.0158  0.0019  0.0110  0.0201  0.0173  0.0301  0.0049  0.0336  0.0027 </r>
        <r>  0.0086  0.0065  0.0165  0.0173  0.0148  0.0360  0.0033  0.0372  0.0029 </r>
        <r>  0.0195  0.0049  0.0069  0.0004  0.0103  0.0320  0.0034  0.0456  0.0159 </r>
       </set>
       <set comment="band 20">
        <r>  0.0010  0.0067  0.0199  0.0315  0.0037  0.0642  0.0135  0.0240  0.0137 </r>
        <r>  0.0173  0.0149  0.0191  0.0079  0.0191  0.0147  0.0110  0.0289  0.0024 </r>
        <r>  0.0084  0.0465  0.0005  0.0292  0.0135  0.0056  0.0120  0.0418  0.0027 </r>
       </set>
       <set comment="band 21">
        <r>  0.0274  0.0025  0.0105  0.0066  0.0036  0.0638  0.0031  0.0123  0.0230 </r>
        <r>  0.0028  0.0488  0.0083  0.0053  0.0089  0.0582  0.0002  0.0358  0.0007 </r>
        <r>  0.0025  0.0289  0.0469  0.0103  0.0089  0.0144  0.0120  0.0108  0.0003 </r>
       </set>
       <set comment="band 22">
        <r>  0.0052  0.0570  0.0046  0.0149  0.0170  0.0106  0.0177  0.0084  0.0659 </r>
        <r>  0.0097  0.0178  0.0022  0.0125  0.0026  0.0361  0.0003  0.0058  0.0054 </r>
        <r>  0.0156  0.0038  0.0048  0.0025  0.0170  0.0308  0.0160  0.0024  0.0552 </r>
       </set>
       <set comment="band 23">
        <r>  0.0053  0.0078  0.0205  0.0171  0.0022  0.0107  0.0065  0.0153  0.0250 </r>
        <r>  0.0061  0.0068  0.0083  0.0144  0.0100  0.0468  0.0125  0.0140  0.1041 </r>
        <r>  0.0062  0.0047  0.0086  0.0027  0.0142  0.0941  0.0138  0.0271  0.0265 </r>
       </set>
       <set comment="band 24">
        <r>  0.0024  0.0152  0.0017  0.0117  0.0146  0.0143  0.0351  0.0589  0.0444 </r>
        <r>  0.0036  0.0113  0.0176  0.0010  0.0135  0.0005  0.0110  0.0100  0.0151 </r>
        <r>  0.0085  0.0027  0.0001  0.0336  0.0036  0.0062  0.0146  0.0608  0.0510 </r>
       </set>
       <set comment="band 25">
        <r>  0.0033  0.0047  0.0079  0.0002  0.0362  0.0081  0.0035  0.0153  0.0190 </r>
        <r>  0.0165  0.0029  0.0050  0.0408  0.0141  0.0264  0.0304  0.0079  0.0453 </r>
        <r>  0.0081  0.0052  0.0053  0.0168  0.0323  0.0106  0.0053  0.0006  0.0377 </r>
       </set>
       <set comment="band 26">
        <r>  0.0131  0.0053  0.0105  0.0198  0.0263  0.0048  0.0005  0.0156  0.0294 </r>
        <r>  0.0109  0.0066  0.0029  0.0245  0.0721  0.0173  0.0076  0.0261  0.0042 </r>
        <r>  0.0020  0.0135  0.0013  0.0382  0.0369  0.0054  0.0099  0.0283  0.0105 </r>
       </set>
       <set comment="band 27">
        <r>  0.0052  0.0020  0.0077  0.0076  0.0213  0.0099  0.0529  0.0580  0.0070 </r>
        <r>  0.0030  0.0117  0.0033  0.0138  0.0080  0.0072  0.0710  0.0225  0.0207 </r>
        <r>  0.0059  0.0013  0.0175  0.0003  0.0125  0.0012  0.0124  0.0004  0.0133 </r>
       </set>
       <set comment="band 28">
        <r>  0.0043  0.0120  0.0035  0.0071  0.0822  0.0001  0.0092  0.0105  0.0314 </r>
        <r>  0.0123  0.0013  0.0098  0.0050  0.0720  0.0001  0.0007  0.0031  0.0545 </r>
        <r>  0.0130  0.0157  0.0060  0.0066  0.0056  0.0095  0.0200  0.0013  0.0530 </r>
       </set>
       <set comment="band 29">
        <r>  0.0039  0.0064  0.0038  0.0008  0.0229  0.0079  0.0115  0.0109  0.0127 </r>
        <r>  0.0008  0.0123  0.0021  0.0028  0.1069  0.0014  0.0375  0.0392  0.0259 </r>
        <r>  0.0002  0.0112  0.0026  0.0008  0.1603  0.0076  0.0210  0.0177  0.0044 </r>
       </set>
       <set comment="band 30">
        <r>  0.0051  0.0007  0.0018  0.0019  0.0391  0.0015  0.0138  0.0069  0.0125 </r>
        <r>  0.0008  0.0001  0.0019  0.0006  0.0024  0.0104  0.0671  0.0075  0.0620 </r>
        <r>  0.0021  0.0003  0.0045  0.0064  0.0191  0.0032  0.1101  0.0162  0.0067 </r>
       </set>
       <set comment="band 31">
        <r>  0.0000  0.0225  0.0057  0.0031  0.0698  0.0010  0.0525  0.0311  0.0636 </r>
        <r>  0.0025  0.0018  0.0031  0.0004  0.0082  0.0064  0.0166  0.0102  0.0025 </r>
        <r>  0.0041  0.0047  0.0035  0.0012  0.0039  0.0423  0.0130  0.0212  0.0717 </r>
       </set>
       <set comment="band 32">
        <r>  0.0009  0.0003  0.0002  0.0094  0.0348  0.0285  0.0822  0.0121  0.0185 </r>
        <r>  0.0046  0.0047  0.0036  0.0055  0.0025  0.0027  0.0097  0.0320  0.0269 </r>
        <r>  0.0045  0.0016  0.0033  0.0020  0.0208  0.0576  0.0225  0.0178  0.0505 </r>
       </set>
      </set>
      <set comment="kpoint 56">
       <set comment="band 1">
        <r>  0.0987  0.0003  0.0081  0.0005  0.0001  0.0000  0.0000  0.0002  0.0000 </r>
        <r>  0.1054  0.0008  0.0079  0.0000  0.0000  0.0002  0.0000  0.0000  0.0001 </r>
        <r>  0.4080  0.0015  0.0000  0.0005  0.0000  0.0000  0.0000  0.0001  0.0000 </r>
       </set>
       <set comment="band 2">
        <r>  0.3093  0.0001  0.0026  0.0015  0.0000  0.0001  0.0000  0.0001  0.0000 </r>
        <r>  0.3027  0.0008  0.0028  0.0008  0.0001  0.0000  0.0000  0.0002  0.0000 </r>
        <r>  0.0000  0.0001  0.0107  0.0003  0.0000  0.0002  0.0000  0.0001  0.0001 </r>
       </set>
       <set comment="band 3">
        <r>  0.2774  0.0000  0.0000  0.0015  0.0000  0.0001  0.0000  0.0000  0.0000 </r>
        <r>  0.2774  0.0011  0.0000  0.0004  0.0000  0.0000  0.0000  0.0000  0.0000 </r>
        <r>  0.2774  0.0011  0.0000  0.0004  0.0000  0.0000  0.0000  0.0000  0.0000 </r>
       </set>
       <set comment="band 4">
        <r>  0.0000  0.0203  0.1493  0.0000  0.0015  0.0000  0.0000  0.0021  0.0000 </r>
        <r>  0.0000  0.0051  0.1493  0.0152  0.0004  0.0016  0.0000  0.0005  0.0011 </r>
        <r>  0.0000  0.0051  0.1493  0.0152  0.0004  0.0016  0.0000  0.0005  0.0011 </r>
       </set>
       <set comment="band 5">
        <r>  0.0009  0.0437  0.0072  0.0662  0.0000  0.0003  0.0001  0.0017  0.0001 </r>
        <r>  0.0009  0.1111  0.0070  0.0022  0.0001  0.0020  0.0001  0.0000  0.0001 </r>
        <r>  0.0037  0.2060  0.0000  0.0674  0.0003  0.0003  0.0003  0.0009  0.0001 </r>
       </set>
       <set comment="band 6">
        <r>  0.0028  0.0140  0.0023  0.2072  0.0000  0.0009  0.0003  0.0005  0.0004 </r>
        <r>  0.0027  0.1083  0.0024  0.1094  0.0003  0.0000  0.0003  0.0015  0.0001 </r>
        <r>  0.0000  0.0135  0.0095  0.0442  0.0000  0.0017  0.0000  0.0006  0.0000 </r>
       </set>
       <set comment="band 7">
        <r>  0.0000  0.1480  0.0182  0.0000  0.0015  0.0000  0.0000  0.0010  0.0000 </r>
        <r>  0.0000  0.0370  0.0182  0.1110  0.0004  0.0007  0.0000  0.0002  0.0011 </r>
        <r>  0.0000  0.0370  0.0182  0.1110  0.0004  0.0007  0.0000  0.0002  0.0011 </r>
       </set>
       <set comment="band 8">
        <r>  0.0158  0.0491  0.0227  0.0185  0.0000  0.0000  0.0008  0.0002  0.0032 </r>
        <r>  0.0155  0.0531  0.0237  0.0166  0.0023  0.0002  0.0008  0.0000  0.0008 </r>
        <r>  0.0000  0.0506  0.0928  0.1503  0.0000  0.0008  0.0000  0.0002  0.0000 </r>
       </set>
       <set comment="band 9">
        <r>  0.0051  0.1519  0.0701  0.0060  0.0000  0.0000  0.0003  0.0008  0.0010 </r>
        <r>  0.0053  0.0156  0.0690  0.1402  0.0008  0.0005  0.0003  0.0002  0.0003 </r>
        <r>  0.0208  0.0180  0.0000  0.0065  0.0031  0.0000  0.0011  0.0000  0.0010 </r>
       </set>
       <set comment="band 10">
        <r>  0.0014  0.0000  0.0000  0.1548  0.0000  0.0038  0.0029  0.0000  0.0045 </r>
        <r>  0.0014  0.1161  0.0000  0.0387  0.0034  0.0009  0.0029  0.0028  0.0011 </r>
        <r>  0.0014  0.1160  0.0000  0.0387  0.0034  0.0009  0.0029  0.0028  0.0011 </r>
       </set>
       <set comment="band 11">
        <r>  0.0399  0.0164  0.0344  0.0218  0.0011  0.0000  0.0022  0.0016  0.0016 </r>
        <r>  0.0376  0.0376  0.0412  0.0024  0.0027  0.0013  0.0021  0.0007  0.0001 </r>
        <r>  0.0000  0.0189  0.1510  0.0528  0.0013  0.0054  0.0000  0.0018  0.0036 </r>
       </set>
       <set comment="band 12">
        <r>  0.0118  0.0554  0.1166  0.0064  0.0038  0.0000  0.0007  0.0056  0.0005 </r>
        <r>  0.0141  0.0015  0.1099  0.0584  0.0001  0.0041  0.0008  0.0011  0.0041 </r>
        <r>  0.0516  0.0202  0.0001  0.0081  0.0015  0.0000  0.0029  0.0000  0.0006 </r>
       </set>
       <set comment="band 13">
        <r>  0.0006  0.0000  0.0000  0.0003  0.0000  0.0028  0.0538  0.0000  0.0060 </r>
        <r>  0.0006  0.0003  0.0000  0.0001  0.0045  0.0007  0.0538  0.0021  0.0015 </r>
        <r>  0.0006  0.0003  0.0000  0.0001  0.0045  0.0007  0.0538  0.0021  0.0015 </r>
       </set>
       <set comment="band 14">
        <r>  0.0010  0.0002  0.0002  0.0004  0.0125  0.0276  0.0000  0.0014  0.0230 </r>
        <r>  0.0009  0.0006  0.0003  0.0000  0.0033  0.0138  0.0000  0.0129  0.0348 </r>
        <r>  0.0000  0.0003  0.0009  0.0007  0.0133  0.0058  0.0000  0.0011  0.0466 </r>
       </set>
       <set comment="band 15">
        <r>  0.0003  0.0008  0.0007  0.0001  0.0474  0.0073  0.0000  0.0054  0.0061 </r>
        <r>  0.0004  0.0000  0.0006  0.0008  0.0334  0.0001  0.0000  0.0150  0.0175 </r>
        <r>  0.0012  0.0003  0.0000  0.0002  0.0235  0.0081  0.0000  0.0268  0.0056 </r>
       </set>
       <set comment="band 16">
        <r>  0.0000  0.0002  0.0001  0.0000  0.0081  0.0000  0.0000  0.0129  0.0000 </r>
        <r>  0.0000  0.0000  0.0001  0.0001  0.0020  0.0096  0.0000  0.0032  0.0061 </r>
        <r>  0.0000  0.0000  0.0001  0.0001  0.0020  0.0096  0.0000  0.0032  0.0061 </r>
       </set>
       <set comment="band 17">
        <r>  0.0026  0.0046  0.1191  0.0048  0.0049  0.0053  0.0057  0.0035  0.0027 </r>
        <r>  0.0026  0.0007  0.1191  0.0087  0.0001  0.0076  0.0057  0.0011  0.0076 </r>
        <r>  0.0103  0.0143  0.0000  0.0048  0.0082  0.0053  0.0229  0.0159  0.0027 </r>
       </set>
       <set comment="band 18">
        <r>  0.0077  0.0015  0.0397  0.0143  0.0016  0.0159  0.0171  0.0012  0.0082 </r>
        <r>  0.0077  0.0152  0.0397  0.0007  0.0098  0.0011  0.0172  0.0159  0.0001 </r>
        <r>  0.0000  0.0015  0.1588  0.0046  0.0016  0.0035  0.0000  0.0012  0.0049 </r>
       </set>
       <set comment="band 19">
        <r>  0.0033  0.0000  0.0000  0.0515  0.0000  0.0134  0.0026  0.0000  0.0453 </r>
        <r>  0.0033  0.0386  0.0000  0.0129  0.0340  0.0034  0.0026  0.0101  0.0113 </r>
        <r>  0.0033  0.0386  0.0000  0.0129  0.0340  0.0034  0.0026  0.0101  0.0113 </r>
       </set>
       <set comment="band 20">
        <r>  0.0000  0.0059  0.0014  0.0000  0.0071  0.0000  0.0000  0.1325  0.0000 </r>
        <r>  0.0000  0.0015  0.0014  0.0044  0.0018  0.0994  0.0000  0.0331  0.0053 </r>
        <r>  0.0000  0.0015  0.0014  0.0044  0.0018  0.0994  0.0000  0.0331  0.0053 </r>
       </set>
       <set comment="band 21">
        <r>  0.0049  0.0374  0.0125  0.0024  0.0258  0.0005  0.0002  0.0149  0.0174 </r>
        <r>  0.0064  0.0020  0.0114  0.0353  0.0030  0.0131  0.0002  0.0013  0.0435 </r>
        <r>  0.0224  0.0074  0.0000  0.0035  0.0586  0.0009  0.0007  0.0016  0.0219 </r>
       </set>
       <set comment="band 22">
        <r>  0.0176  0.0103  0.0035  0.0085  0.0071  0.0019  0.0006  0.0041  0.0631 </r>
        <r>  0.0161  0.0181  0.0045  0.0032  0.0657  0.0018  0.0005  0.0053  0.0013 </r>
        <r>  0.0000  0.0127  0.0159  0.0350  0.0101  0.0140  0.0000  0.0050  0.0229 </r>
       </set>
       <set comment="band 23">
        <r>  0.0000  0.0009  0.0080  0.0000  0.0129  0.0125  0.0010  0.0679  0.0002 </r>
        <r>  0.0000  0.0004  0.0047  0.0002  0.0001  0.0918  0.0054  0.0161  0.0088 </r>
        <r>  0.0000  0.0002  0.0004  0.0000  0.0010  0.0574  0.0109  0.0853  0.0025 </r>
       </set>
       <set comment="band 24">
        <r>  0.0000  0.0001  0.0007  0.0001  0.0012  0.1339  0.0105  0.0063  0.0027 </r>
        <r>  0.0000  0.0000  0.0041  0.0005  0.0056  0.0005  0.0061  0.1123  0.0026 </r>
        <r>  0.0000  0.0002  0.0083  0.0008  0.0047  0.0348  0.0006  0.0431  0.0089 </r>
       </set>
       <set comment="band 25">
        <r>  0.0000  0.0218  0.0003  0.0000  0.0842  0.0000  0.0000  0.0018  0.0000 </r>
        <r>  0.0000  0.0055  0.0003  0.0164  0.0211  0.0014  0.0000  0.0005  0.0632 </r>
        <r>  0.0000  0.0055  0.0003  0.0164  0.0211  0.0014  0.0000  0.0005  0.0632 </r>
       </set>
       <set comment="band 26">
        <r>  0.0492  0.0006  0.0000  0.0087  0.0005  0.0004  0.0765  0.0002  0.0049 </r>
        <r>  0.0466  0.0083  0.0000  0.0005  0.0022  0.0000  0.0725  0.0006  0.0030 </r>
        <r>  0.0000  0.0007  0.0001  0.0017  0.0004  0.0008  0.0001  0.0003  0.0016 </r>
       </set>
       <set comment="band 27">
        <r>  0.0147  0.0019  0.0001  0.0026  0.0016  0.0001  0.0229  0.0008  0.0015 </r>
        <r>  0.0173  0.0007  0.0001  0.0041  0.0030  0.0009  0.0268  0.0000  0.0002 </r>
        <r>  0.0639  0.0083  0.0000  0.0029  0.0048  0.0001  0.0993  0.0004  0.0015 </r>
       </set>
       <set comment="band 28">
        <r>  0.0000  0.0000  0.0000  0.0000  0.0000  0.0861  0.0001  0.0000  0.0079 </r>
        <r>  0.0000  0.0000  0.0000  0.0000  0.0059  0.0215  0.0001  0.0646  0.0020 </r>
        <r>  0.0000  0.0000  0.0000  0.0000  0.0059  0.0215  0.0001  0.0646  0.0020 </r>
       </set>
       <set comment="band 29">
        <r>  0.0000  0.0020  0.0073  0.0010  0.0133  0.0003  0.0419  0.0213  0.0035 </r>
        <r>  0.0000  0.0032  0.0043  0.0006  0.0040  0.0080  0.1062  0.0053  0.0125 </r>
        <r>  0.0000  0.0035  0.0023  0.0008  0.0076  0.0042  0.1502  0.0034  0.0089 </r>
       </set>
       <set comment="band 30">
        <r>  0.0000  0.0005  0.0020  0.0039  0.0035  0.0011  0.1570  0.0057  0.0130 </r>
        <r>  0.0000  0.0011  0.0050  0.0026  0.0125  0.0126  0.0927  0.0024  0.0041 </r>
        <r>  0.0000  0.0008  0.0070  0.0023  0.0088  0.0163  0.0487  0.0044  0.0078 </r>
       </set>
       <set comment="band 31">
        <r>  0.0007  0.0000  0.0012  0.0023  0.0071  0.0769  0.0427  0.0339  0.1920 </r>
        <r>  0.0005  0.0011  0.0019  0.0004  0.1243  0.0689  0.0347  0.0302  0.0717 </r>
        <r>  0.0003  0.0007  0.0029  0.0003  0.0578  0.0699  0.0184  0.0382  0.0391 </r>
       </set>
       <set comment="band 32">
        <r>  0.0003  0.0000  0.0027  0.0009  0.0131  0.0346  0.0205  0.0734  0.0986 </r>
        <r>  0.0005  0.0011  0.0022  0.0004  0.1148  0.0344  0.0301  0.0769  0.0278 </r>
        <r>  0.0007  0.0015  0.0012  0.0006  0.1848  0.0340  0.0445  0.0679  0.0566 </r>
       </set>
      </set>
      <set comment="kpoint 57">
       <set comment="band 1">
        <r>  0.1056  0.0003  0.0076  0.0006  0.0001  0.0000  0.0000  0.0003  0.0000 </r>
        <r>  0.4047  0.0016  0.0001  0.0007  0.0001  0.0000  0.0000  0.0001  0.0000 </r>
        <r>  0.1064  0.0009  0.0076  0.0001  0.0000  0.0003  0.0000  0.0000  0.0001 </r>
       </set>
       <set comment="band 2">
        <r>  0.3056  0.0002  0.0025  0.0020  0.0000  0.0001  0.0000  0.0001  0.0000 </r>
        <r>  0.0051  0.0002  0.0103  0.0005  0.0000  0.0002  0.0000  0.0001  0.0001 </r>
        <r>  0.3048  0.0010  0.0025  0.0012  0.0001  0.0000  0.0000  0.0002  0.0000 </r>
       </set>
       <set comment="band 3">
        <r>  0.2688  0.0003  0.0000  0.0040  0.0000  0.0001  0.0000  0.0000  0.0000 </r>
        <r>  0.2678  0.0013  0.0000  0.0013  0.0000  0.0001  0.0000  0.0001  0.0000 </r>
        <r>  0.2688  0.0022  0.0000  0.0021  0.0000  0.0000  0.0000  0.0001  0.0000 </r>
       </set>
       <set comment="band 4">
        <r>  0.0005  0.0245  0.1435  0.0026  0.0016  0.0000  0.0000  0.0022  0.0001 </r>
        <r>  0.0004  0.0152  0.1113  0.0326  0.0006  0.0016  0.0001  0.0007  0.0012 </r>
        <r>  0.0005  0.0054  0.1435  0.0217  0.0006  0.0017  0.0000  0.0006  0.0011 </r>
       </set>
       <set comment="band 5">
        <r>  0.0077  0.0272  0.0002  0.1252  0.0002  0.0001  0.0002  0.0013  0.0004 </r>
        <r>  0.0015  0.0798  0.0629  0.0279  0.0003  0.0015  0.0003  0.0015  0.0001 </r>
        <r>  0.0077  0.1241  0.0002  0.0284  0.0003  0.0012  0.0002  0.0002  0.0003 </r>
       </set>
       <set comment="band 6">
        <r>  0.0004  0.0236  0.0239  0.1279  0.0003  0.0009  0.0003  0.0014  0.0005 </r>
        <r>  0.0267  0.0969  0.0012  0.0365  0.0002  0.0004  0.0001  0.0001  0.0001 </r>
        <r>  0.0004  0.0738  0.0239  0.0776  0.0008  0.0009  0.0003  0.0015  0.0000 </r>
       </set>
       <set comment="band 7">
        <r>  0.0085  0.0356  0.0170  0.0124  0.0007  0.0003  0.0004  0.0009  0.0002 </r>
        <r>  0.0015  0.0706  0.0609  0.1947  0.0003  0.0004  0.0004  0.0002  0.0003 </r>
        <r>  0.0085  0.0242  0.0170  0.0237  0.0006  0.0003  0.0004  0.0008  0.0003 </r>
       </set>
       <set comment="band 8">
        <r>  0.0104  0.1466  0.0363  0.0139  0.0005  0.0009  0.0007  0.0002  0.0011 </r>
        <r>  0.0028  0.0321  0.0194  0.0142  0.0013  0.0009  0.0000  0.0003  0.0008 </r>
        <r>  0.0104  0.0677  0.0363  0.0928  0.0003  0.0006  0.0007  0.0005  0.0013 </r>
       </set>
       <set comment="band 9">
        <r>  0.0117  0.1401  0.0502  0.0058  0.0002  0.0002  0.0000  0.0006  0.0011 </r>
        <r>  0.0109  0.0249  0.0117  0.0365  0.0021  0.0003  0.0012  0.0001  0.0008 </r>
        <r>  0.0117  0.0169  0.0501  0.1289  0.0010  0.0008  0.0000  0.0000  0.0003 </r>
       </set>
       <set comment="band 10">
        <r>  0.0118  0.0633  0.0103  0.0551  0.0002  0.0007  0.0018  0.0018  0.0052 </r>
        <r>  0.0053  0.1115  0.0309  0.0592  0.0006  0.0039  0.0010  0.0027  0.0017 </r>
        <r>  0.0118  0.1072  0.0103  0.0112  0.0041  0.0023  0.0018  0.0002  0.0013 </r>
       </set>
       <set comment="band 11">
        <r>  0.0184  0.0013  0.0738  0.0610  0.0021  0.0014  0.0034  0.0011  0.0010 </r>
        <r>  0.0154  0.0350  0.0972  0.0351  0.0012  0.0027  0.0000  0.0015  0.0015 </r>
        <r>  0.0184  0.0455  0.0738  0.0168  0.0009  0.0016  0.0034  0.0009  0.0023 </r>
       </set>
       <set comment="band 12">
        <r>  0.0085  0.0328  0.0816  0.0785  0.0018  0.0008  0.0007  0.0033  0.0007 </r>
        <r>  0.0151  0.0189  0.0317  0.0566  0.0027  0.0001  0.0057  0.0001  0.0020 </r>
        <r>  0.0085  0.0233  0.0816  0.0881  0.0011  0.0016  0.0007  0.0024  0.0015 </r>
       </set>
       <set comment="band 13">
        <r>  0.0010  0.0004  0.0006  0.0036  0.0020  0.0052  0.0503  0.0006  0.0041 </r>
        <r>  0.0002  0.0004  0.0005  0.0002  0.0098  0.0002  0.0487  0.0002  0.0034 </r>
        <r>  0.0010  0.0030  0.0006  0.0009  0.0011  0.0008  0.0503  0.0050  0.0050 </r>
       </set>
       <set comment="band 14">
        <r>  0.0003  0.0040  0.0005  0.0009  0.0330  0.0034  0.0027  0.0050  0.0093 </r>
        <r>  0.0012  0.0031  0.0047  0.0053  0.0113  0.0082  0.0029  0.0202  0.0053 </r>
        <r>  0.0003  0.0000  0.0005  0.0048  0.0304  0.0016  0.0027  0.0068  0.0119 </r>
       </set>
       <set comment="band 15">
        <r>  0.0003  0.0052  0.0029  0.0024  0.0140  0.0254  0.0004  0.0037  0.0223 </r>
        <r>  0.0000  0.0030  0.0029  0.0019  0.0148  0.0035  0.0016  0.0013  0.0440 </r>
        <r>  0.0003  0.0007  0.0029  0.0069  0.0050  0.0174  0.0004  0.0116  0.0313 </r>
       </set>
       <set comment="band 16">
        <r>  0.0052  0.0007  0.0572  0.0024  0.0073  0.0079  0.0036  0.0400  0.0007 </r>
        <r>  0.0111  0.0088  0.0024  0.0038  0.0020  0.0233  0.0119  0.0322  0.0007 </r>
        <r>  0.0052  0.0014  0.0572  0.0017  0.0006  0.0252  0.0036  0.0227  0.0074 </r>
       </set>
       <set comment="band 17">
        <r>  0.0022  0.0018  0.0287  0.0188  0.0033  0.0160  0.0187  0.0032  0.0149 </r>
        <r>  0.0075  0.0023  0.1102  0.0034  0.0081  0.0041  0.0011  0.0024  0.0088 </r>
        <r>  0.0022  0.0156  0.0287  0.0050  0.0176  0.0036  0.0187  0.0156  0.0006 </r>
       </set>
       <set comment="band 18">
        <r>  0.0009  0.0019  0.0074  0.0000  0.0154  0.0009  0.0003  0.0042  0.0074 </r>
        <r>  0.0020  0.0029  0.0004  0.0010  0.0105  0.0040  0.0009  0.0046  0.0116 </r>
        <r>  0.0009  0.0004  0.0074  0.0016  0.0140  0.0031  0.0003  0.0020  0.0088 </r>
       </set>
       <set comment="band 19">
        <r>  0.0238  0.0000  0.0089  0.0184  0.0028  0.0097  0.0035  0.0018  0.0221 </r>
        <r>  0.0017  0.0150  0.0253  0.0052  0.0355  0.0067  0.0001  0.0131  0.0137 </r>
        <r>  0.0238  0.0138  0.0089  0.0046  0.0187  0.0003  0.0035  0.0113  0.0061 </r>
       </set>
       <set comment="band 20">
        <r>  0.0033  0.0260  0.0050  0.0008  0.0297  0.0142  0.0064  0.0057  0.0184 </r>
        <r>  0.0076  0.0124  0.0035  0.0055  0.0348  0.0135  0.0001  0.0052  0.0138 </r>
        <r>  0.0033  0.0066  0.0050  0.0202  0.0024  0.0119  0.0064  0.0079  0.0457 </r>
       </set>
       <set comment="band 21">
        <r>  0.0017  0.0046  0.0164  0.0014  0.0189  0.0159  0.0041  0.0564  0.0069 </r>
        <r>  0.0034  0.0034  0.0000  0.0079  0.0049  0.0908  0.0198  0.0304  0.0017 </r>
        <r>  0.0017  0.0000  0.0164  0.0060  0.0100  0.0696  0.0041  0.0027  0.0157 </r>
       </set>
       <set comment="band 22">
        <r>  0.0083  0.0045  0.0024  0.0135  0.0121  0.0059  0.0032  0.0007  0.0457 </r>
        <r>  0.0098  0.0244  0.0030  0.0270  0.0052  0.0331  0.0214  0.0123  0.0033 </r>
        <r>  0.0083  0.0161  0.0024  0.0019  0.0560  0.0037  0.0032  0.0029  0.0017 </r>
       </set>
       <set comment="band 23">
        <r>  0.0007  0.0059  0.0239  0.0001  0.0007  0.0779  0.0030  0.0521  0.0056 </r>
        <r>  0.0023  0.0023  0.0002  0.0010  0.0068  0.0017  0.0025  0.0041  0.0205 </r>
        <r>  0.0007  0.0012  0.0239  0.0048  0.0027  0.0170  0.0030  0.1130  0.0036 </r>
       </set>
       <set comment="band 24">
        <r>  0.0055  0.0108  0.0114  0.0045  0.0129  0.0221  0.0050  0.0415  0.0071 </r>
        <r>  0.0245  0.0009  0.0041  0.0004  0.0096  0.0192  0.0024  0.0466  0.0282 </r>
        <r>  0.0055  0.0119  0.0114  0.0034  0.0026  0.0571  0.0050  0.0065  0.0174 </r>
       </set>
       <set comment="band 25">
        <r>  0.0075  0.0073  0.0010  0.0069  0.0113  0.0196  0.0070  0.0335  0.0170 </r>
        <r>  0.0059  0.0011  0.0110  0.0028  0.0111  0.0215  0.0136  0.0544  0.0332 </r>
        <r>  0.0075  0.0092  0.0010  0.0051  0.0041  0.0505  0.0070  0.0026  0.0242 </r>
       </set>
       <set comment="band 26">
        <r>  0.0320  0.0043  0.0000  0.0151  0.0058  0.0003  0.0688  0.0003  0.0064 </r>
        <r>  0.0081  0.0029  0.0000  0.0072  0.0110  0.0005  0.0265  0.0003  0.0060 </r>
        <r>  0.0320  0.0085  0.0000  0.0108  0.0077  0.0000  0.0688  0.0005  0.0044 </r>
       </set>
       <set comment="band 27">
        <r>  0.0016  0.0008  0.0043  0.0019  0.0006  0.0851  0.0022  0.0118  0.0059 </r>
        <r>  0.0011  0.0006  0.0109  0.0014  0.0034  0.0388  0.0003  0.0713  0.0061 </r>
        <r>  0.0016  0.0007  0.0043  0.0020  0.0048  0.0087  0.0022  0.0881  0.0017 </r>
       </set>
       <set comment="band 28">
        <r>  0.0057  0.0138  0.0002  0.0068  0.0497  0.0026  0.0282  0.0003  0.0031 </r>
        <r>  0.0148  0.0105  0.0008  0.0212  0.0256  0.0010  0.0523  0.0030  0.0188 </r>
        <r>  0.0057  0.0012  0.0002  0.0194  0.0227  0.0003  0.0282  0.0026  0.0301 </r>
       </set>
       <set comment="band 29">
        <r>  0.0031  0.0007  0.0009  0.0192  0.0170  0.0026  0.0948  0.0064  0.0489 </r>
        <r>  0.0003  0.0069  0.0044  0.0054  0.0206  0.0169  0.0000  0.0192  0.0517 </r>
        <r>  0.0031  0.0145  0.0009  0.0054  0.0492  0.0063  0.0948  0.0026  0.0170 </r>
       </set>
       <set comment="band 30">
        <r>  0.0016  0.0044  0.0013  0.0077  0.0250  0.0097  0.0244  0.0089  0.0933 </r>
        <r>  0.0006  0.0020  0.0005  0.0024  0.0011  0.0014  0.0717  0.0018  0.0010 </r>
        <r>  0.0016  0.0104  0.0013  0.0018  0.0434  0.0158  0.0250  0.0026  0.0756 </r>
       </set>
       <set comment="band 31">
        <r>  0.0031  0.0128  0.0007  0.0014  0.0298  0.0009  0.0255  0.0021  0.0084 </r>
        <r>  0.0001  0.0028  0.0016  0.0014  0.0185  0.0049  0.0329  0.0025  0.0541 </r>
        <r>  0.0034  0.0015  0.0005  0.0134  0.0122  0.0021  0.0345  0.0009  0.0293 </r>
       </set>
       <set comment="band 32">
        <r>  0.0041  0.0058  0.0083  0.0045  0.0222  0.0132  0.0059  0.0550  0.0020 </r>
        <r>  0.0111  0.0088  0.0009  0.0238  0.1049  0.0005  0.0015  0.0013  0.0334 </r>
        <r>  0.0037  0.0004  0.0087  0.0090  0.0018  0.0226  0.0038  0.0473  0.0192 </r>
       </set>
      </set>
      <set comment="kpoint 58">
       <set comment="band 1">
        <r>  0.1159  0.0004  0.0062  0.0009  0.0001  0.0000  0.0000  0.0005  0.0000 </r>
        <r>  0.3990  0.0019  0.0002  0.0010  0.0001  0.0001  0.0000  0.0002  0.0000 </r>
        <r>  0.1160  0.0011  0.0062  0.0002  0.0000  0.0004  0.0000  0.0001  0.0001 </r>
       </set>
       <set comment="band 2">
        <r>  0.3060  0.0004  0.0020  0.0034  0.0000  0.0002  0.0000  0.0002  0.0000 </r>
        <r>  0.0142  0.0004  0.0095  0.0012  0.0000  0.0003  0.0000  0.0001  0.0001 </r>
        <r>  0.3058  0.0016  0.0020  0.0022  0.0001  0.0000  0.0000  0.0003  0.0000 </r>
       </set>
       <set comment="band 3">
        <r>  0.2492  0.0009  0.0003  0.0080  0.0000  0.0001  0.0000  0.0000  0.0000 </r>
        <r>  0.2512  0.0013  0.0001  0.0021  0.0000  0.0001  0.0000  0.0002  0.0000 </r>
        <r>  0.2492  0.0040  0.0003  0.0049  0.0000  0.0000  0.0000  0.0001  0.0000 </r>
       </set>
       <set comment="band 4">
        <r>  0.0052  0.0269  0.0957  0.0330  0.0010  0.0000  0.0001  0.0018  0.0002 </r>
        <r>  0.0045  0.0340  0.0060  0.0804  0.0008  0.0005  0.0002  0.0006  0.0008 </r>
        <r>  0.0052  0.0086  0.0957  0.0513  0.0008  0.0013  0.0001  0.0005  0.0005 </r>
       </set>
       <set comment="band 5">
        <r>  0.0074  0.0116  0.0378  0.0891  0.0009  0.0001  0.0001  0.0004  0.0007 </r>
        <r>  0.0146  0.0012  0.1736  0.0007  0.0001  0.0024  0.0000  0.0009  0.0003 </r>
        <r>  0.0074  0.0885  0.0378  0.0123  0.0009  0.0002  0.0001  0.0003  0.0007 </r>
       </set>
       <set comment="band 6">
        <r>  0.0028  0.0313  0.0370  0.0611  0.0008  0.0008  0.0002  0.0012  0.0002 </r>
        <r>  0.0317  0.1403  0.0160  0.0470  0.0007  0.0002  0.0001  0.0002  0.0002 </r>
        <r>  0.0028  0.0669  0.0369  0.0254  0.0006  0.0011  0.0002  0.0010  0.0004 </r>
       </set>
       <set comment="band 7">
        <r>  0.0127  0.1190  0.0120  0.0072  0.0003  0.0016  0.0010  0.0010  0.0001 </r>
        <r>  0.0130  0.0593  0.0472  0.0380  0.0021  0.0001  0.0000  0.0002  0.0008 </r>
        <r>  0.0127  0.0113  0.0120  0.1149  0.0001  0.0012  0.0010  0.0014  0.0003 </r>
       </set>
       <set comment="band 8">
        <r>  0.0002  0.1133  0.0485  0.0276  0.0006  0.0003  0.0000  0.0023  0.0006 </r>
        <r>  0.0001  0.0297  0.0348  0.0221  0.0001  0.0014  0.0000  0.0006  0.0003 </r>
        <r>  0.0002  0.0947  0.0485  0.0462  0.0003  0.0024  0.0000  0.0002  0.0008 </r>
       </set>
       <set comment="band 9">
        <r>  0.0276  0.0555  0.0366  0.0436  0.0004  0.0010  0.0005  0.0003  0.0004 </r>
        <r>  0.0003  0.0472  0.0011  0.1344  0.0009  0.0003  0.0016  0.0005  0.0003 </r>
        <r>  0.0276  0.0179  0.0366  0.0812  0.0007  0.0003  0.0005  0.0011  0.0001 </r>
       </set>
       <set comment="band 10">
        <r>  0.0086  0.0769  0.0085  0.0719  0.0002  0.0001  0.0021  0.0015  0.0042 </r>
        <r>  0.0055  0.1173  0.0097  0.0572  0.0008  0.0040  0.0036  0.0028  0.0011 </r>
        <r>  0.0086  0.1373  0.0085  0.0114  0.0040  0.0014  0.0021  0.0001  0.0004 </r>
       </set>
       <set comment="band 11">
        <r>  0.0103  0.0105  0.0994  0.0712  0.0025  0.0012  0.0026  0.0004  0.0003 </r>
        <r>  0.0100  0.0210  0.1117  0.0238  0.0010  0.0039  0.0000  0.0019  0.0012 </r>
        <r>  0.0103  0.0437  0.0995  0.0379  0.0006  0.0009  0.0026  0.0007  0.0022 </r>
       </set>
       <set comment="band 12">
        <r>  0.0027  0.0397  0.1000  0.0737  0.0008  0.0014  0.0017  0.0035  0.0003 </r>
        <r>  0.0016  0.0297  0.0408  0.0709  0.0006  0.0007  0.0041  0.0022  0.0015 </r>
        <r>  0.0027  0.0200  0.1000  0.0935  0.0000  0.0012  0.0017  0.0037  0.0010 </r>
       </set>
       <set comment="band 13">
        <r>  0.0008  0.0120  0.0021  0.0024  0.0208  0.0055  0.0139  0.0055  0.0010 </r>
        <r>  0.0000  0.0092  0.0095  0.0107  0.0157  0.0025  0.0103  0.0062  0.0056 </r>
        <r>  0.0008  0.0089  0.0021  0.0054  0.0096  0.0025  0.0139  0.0084  0.0122 </r>
       </set>
       <set comment="band 14">
        <r>  0.0002  0.0024  0.0061  0.0075  0.0045  0.0027  0.0305  0.0051  0.0165 </r>
        <r>  0.0024  0.0052  0.0201  0.0113  0.0015  0.0073  0.0429  0.0035  0.0010 </r>
        <r>  0.0002  0.0030  0.0061  0.0070  0.0209  0.0060  0.0305  0.0018  0.0001 </r>
       </set>
       <set comment="band 15">
        <r>  0.0038  0.0037  0.0099  0.0038  0.0110  0.0090  0.0035  0.0303  0.0098 </r>
        <r>  0.0041  0.0027  0.0033  0.0046  0.0126  0.0080  0.0045  0.0229  0.0348 </r>
        <r>  0.0038  0.0024  0.0099  0.0051  0.0038  0.0392  0.0035  0.0002  0.0171 </r>
       </set>
       <set comment="band 16">
        <r>  0.0032  0.0115  0.0040  0.0161  0.0027  0.0145  0.0213  0.0031  0.0245 </r>
        <r>  0.0000  0.0090  0.0025  0.0061  0.0110  0.0129  0.0006  0.0122  0.0073 </r>
        <r>  0.0032  0.0053  0.0040  0.0223  0.0150  0.0015  0.0213  0.0161  0.0122 </r>
       </set>
       <set comment="band 17">
        <r>  0.0057  0.0007  0.0206  0.0027  0.0111  0.0260  0.0113  0.0137  0.0033 </r>
        <r>  0.0275  0.0047  0.0670  0.0070  0.0120  0.0001  0.0050  0.0001  0.0134 </r>
        <r>  0.0057  0.0024  0.0206  0.0010  0.0104  0.0011  0.0113  0.0386  0.0039 </r>
       </set>
       <set comment="band 18">
        <r>  0.0366  0.0029  0.0095  0.0045  0.0065  0.0084  0.0013  0.0045  0.0091 </r>
        <r>  0.0002  0.0023  0.0123  0.0037  0.0324  0.0097  0.0000  0.0285  0.0199 </r>
        <r>  0.0366  0.0037  0.0095  0.0037  0.0112  0.0007  0.0013  0.0122  0.0044 </r>
       </set>
       <set comment="band 19">
        <r>  0.0011  0.0117  0.0008  0.0019  0.0301  0.0295  0.0025  0.0072  0.0256 </r>
        <r>  0.0009  0.0152  0.0009  0.0056  0.0193  0.0353  0.0009  0.0136  0.0134 </r>
        <r>  0.0011  0.0082  0.0008  0.0053  0.0057  0.0230  0.0025  0.0137  0.0499 </r>
       </set>
       <set comment="band 20">
        <r>  0.0007  0.0024  0.0034  0.0000  0.0018  0.0433  0.0009  0.0144  0.0216 </r>
        <r>  0.0000  0.0013  0.0014  0.0014  0.0129  0.0664  0.0046  0.0238  0.0176 </r>
        <r>  0.0007  0.0005  0.0034  0.0020  0.0144  0.0378  0.0009  0.0200  0.0090 </r>
       </set>
       <set comment="band 21">
        <r>  0.0125  0.0039  0.0011  0.0063  0.0463  0.0003  0.0140  0.0031  0.0175 </r>
        <r>  0.0339  0.0055  0.0028  0.0064  0.0050  0.0001  0.0382  0.0001  0.0038 </r>
        <r>  0.0125  0.0022  0.0011  0.0080  0.0446  0.0029  0.0140  0.0004  0.0192 </r>
       </set>
       <set comment="band 22">
        <r>  0.0013  0.0033  0.0023  0.0030  0.0154  0.0062  0.0008  0.0021  0.0079 </r>
        <r>  0.0003  0.0089  0.0008  0.0091  0.0109  0.0140  0.0097  0.0115  0.0036 </r>
        <r>  0.0013  0.0050  0.0023  0.0013  0.0015  0.0022  0.0008  0.0061  0.0218 </r>
       </set>
       <set comment="band 23">
        <r>  0.0023  0.0132  0.0382  0.0035  0.0036  0.0390  0.0077  0.0722  0.0092 </r>
        <r>  0.0004  0.0145  0.0011  0.0051  0.0098  0.0307  0.0090  0.0130  0.0280 </r>
        <r>  0.0023  0.0073  0.0382  0.0094  0.0029  0.0467  0.0077  0.0644  0.0099 </r>
       </set>
       <set comment="band 24">
        <r>  0.0021  0.0086  0.0233  0.0134  0.0044  0.0242  0.0088  0.0468  0.0228 </r>
        <r>  0.0151  0.0058  0.0124  0.0084  0.0072  0.0198  0.0001  0.0423  0.0212 </r>
        <r>  0.0021  0.0215  0.0233  0.0005  0.0139  0.0498  0.0088  0.0212  0.0132 </r>
       </set>
       <set comment="band 25">
        <r>  0.0023  0.0037  0.0008  0.0126  0.0087  0.0305  0.0043  0.0391  0.0361 </r>
        <r>  0.0002  0.0030  0.0125  0.0077  0.0170  0.0268  0.0027  0.0414  0.0505 </r>
        <r>  0.0023  0.0096  0.0008  0.0067  0.0140  0.0661  0.0043  0.0035  0.0307 </r>
       </set>
       <set comment="band 26">
        <r>  0.0070  0.0051  0.0000  0.0248  0.0089  0.0001  0.0816  0.0008  0.0197 </r>
        <r>  0.0019  0.0080  0.0000  0.0239  0.0265  0.0003  0.0821  0.0005  0.0108 </r>
        <r>  0.0070  0.0119  0.0000  0.0179  0.0259  0.0004  0.0816  0.0005  0.0026 </r>
       </set>
       <set comment="band 27">
        <r>  0.0027  0.0119  0.0006  0.0336  0.0008  0.0105  0.0755  0.0134  0.0227 </r>
        <r>  0.0009  0.0033  0.0002  0.0087  0.0214  0.0112  0.0126  0.0224  0.0527 </r>
        <r>  0.0027  0.0109  0.0006  0.0346  0.0180  0.0028  0.0755  0.0211  0.0054 </r>
       </set>
       <set comment="band 28">
        <r>  0.0019  0.0152  0.0012  0.0029  0.0173  0.0084  0.0050  0.0101  0.0553 </r>
        <r>  0.0004  0.0118  0.0001  0.0120  0.0034  0.0096  0.0102  0.0195  0.0100 </r>
        <r>  0.0019  0.0074  0.0012  0.0107  0.0201  0.0106  0.0050  0.0079  0.0526 </r>
       </set>
       <set comment="band 29">
        <r>  0.0003  0.0135  0.0036  0.0009  0.0131  0.0072  0.0169  0.0182  0.0277 </r>
        <r>  0.0003  0.0042  0.0046  0.0030  0.0054  0.0159  0.0279  0.0312  0.0133 </r>
        <r>  0.0003  0.0071  0.0036  0.0073  0.0114  0.0059  0.0169  0.0195  0.0294 </r>
       </set>
       <set comment="band 30">
        <r>  0.0002  0.0050  0.0062  0.0010  0.0143  0.0699  0.0063  0.0118  0.0072 </r>
        <r>  0.0033  0.0036  0.0179  0.0029  0.0245  0.0134  0.0003  0.0334  0.0197 </r>
        <r>  0.0002  0.0022  0.0062  0.0038  0.0003  0.0015  0.0063  0.0801  0.0212 </r>
       </set>
       <set comment="band 31">
        <r>  0.0274  0.0015  0.0001  0.0035  0.0626  0.0016  0.0007  0.0044  0.0080 </r>
        <r>  0.0042  0.0068  0.0002  0.0182  0.0037  0.0020  0.0357  0.0011  0.0092 </r>
        <r>  0.0274  0.0029  0.0001  0.0022  0.0401  0.0018  0.0007  0.0042  0.0307 </r>
       </set>
       <set comment="band 32">
        <r>  0.0083  0.0001  0.0054  0.0019  0.0427  0.0014  0.0006  0.0181  0.0058 </r>
        <r>  0.0311  0.0048  0.0000  0.0016  0.0649  0.0052  0.0002  0.0130  0.0218 </r>
        <r>  0.0082  0.0011  0.0054  0.0009  0.0232  0.0098  0.0006  0.0097  0.0249 </r>
       </set>
      </set>
      <set comment="kpoint 59">
       <set comment="band 1">
        <r>  0.1268  0.0004  0.0044  0.0010  0.0002  0.0000  0.0000  0.0007  0.0000 </r>
        <r>  0.3977  0.0022  0.0001  0.0010  0.0002  0.0001  0.0000  0.0003  0.0001 </r>
        <r>  0.1268  0.0013  0.0044  0.0001  0.0001  0.0006  0.0000  0.0002  0.0001 </r>
       </set>
       <set comment="band 2">
        <r>  0.3155  0.0007  0.0012  0.0052  0.0000  0.0002  0.0000  0.0003  0.0000 </r>
        <r>  0.0128  0.0009  0.0089  0.0027  0.0000  0.0003  0.0000  0.0001  0.0001 </r>
        <r>  0.3154  0.0024  0.0012  0.0035  0.0001  0.0000  0.0000  0.0004  0.0000 </r>
       </set>
       <set comment="band 3">
        <r>  0.2244  0.0012  0.0010  0.0099  0.0000  0.0001  0.0000  0.0000  0.0000 </r>
        <r>  0.2480  0.0008  0.0002  0.0013  0.0000  0.0002  0.0000  0.0003  0.0000 </r>
        <r>  0.2244  0.0048  0.0010  0.0064  0.0000  0.0000  0.0000  0.0001  0.0000 </r>
       </set>
       <set comment="band 4">
        <r>  0.0042  0.0207  0.0668  0.0475  0.0004  0.0000  0.0000  0.0006  0.0001 </r>
        <r>  0.0032  0.0300  0.0024  0.0860  0.0002  0.0001  0.0001  0.0002  0.0002 </r>
        <r>  0.0042  0.0142  0.0668  0.0539  0.0004  0.0004  0.0000  0.0002  0.0001 </r>
       </set>
       <set comment="band 5">
        <r>  0.0081  0.0254  0.0506  0.0638  0.0013  0.0003  0.0000  0.0005  0.0005 </r>
        <r>  0.0182  0.0217  0.1433  0.0091  0.0006  0.0023  0.0000  0.0008  0.0006 </r>
        <r>  0.0081  0.0806  0.0506  0.0085  0.0010  0.0003  0.0000  0.0005  0.0008 </r>
       </set>
       <set comment="band 6">
        <r>  0.0063  0.0284  0.0462  0.0563  0.0010  0.0007  0.0001  0.0007  0.0003 </r>
        <r>  0.0339  0.1036  0.0418  0.0357  0.0010  0.0008  0.0001  0.0004  0.0004 </r>
        <r>  0.0063  0.0669  0.0462  0.0179  0.0007  0.0007  0.0001  0.0007  0.0005 </r>
       </set>
       <set comment="band 7">
        <r>  0.0087  0.1179  0.0212  0.0007  0.0003  0.0023  0.0005  0.0010  0.0001 </r>
        <r>  0.0130  0.0968  0.0048  0.0328  0.0022  0.0001  0.0001  0.0002  0.0008 </r>
        <r>  0.0087  0.0254  0.0212  0.0932  0.0000  0.0025  0.0005  0.0008  0.0004 </r>
       </set>
       <set comment="band 8">
        <r>  0.0063  0.1310  0.0399  0.0050  0.0013  0.0003  0.0000  0.0024  0.0004 </r>
        <r>  0.0011  0.0029  0.0859  0.0015  0.0001  0.0012  0.0000  0.0004  0.0001 </r>
        <r>  0.0063  0.0539  0.0399  0.0820  0.0011  0.0025  0.0000  0.0001  0.0006 </r>
       </set>
       <set comment="band 9">
        <r>  0.0285  0.0135  0.0403  0.0643  0.0001  0.0014  0.0012  0.0030  0.0001 </r>
        <r>  0.0019  0.0541  0.0122  0.1620  0.0003  0.0005  0.0012  0.0011  0.0001 </r>
        <r>  0.0285  0.0288  0.0403  0.0490  0.0002  0.0009  0.0012  0.0035  0.0000 </r>
       </set>
       <set comment="band 10">
        <r>  0.0137  0.0077  0.0519  0.1335  0.0006  0.0006  0.0034  0.0022  0.0006 </r>
        <r>  0.0084  0.0479  0.0028  0.0562  0.0014  0.0016  0.0080  0.0013  0.0005 </r>
        <r>  0.0137  0.1257  0.0519  0.0155  0.0010  0.0008  0.0034  0.0020  0.0002 </r>
       </set>
       <set comment="band 11">
        <r>  0.0001  0.1119  0.0705  0.0069  0.0002  0.0011  0.0009  0.0052  0.0013 </r>
        <r>  0.0024  0.1019  0.0150  0.0423  0.0003  0.0036  0.0005  0.0096  0.0006 </r>
        <r>  0.0001  0.0424  0.0704  0.0764  0.0014  0.0022  0.0009  0.0040  0.0002 </r>
       </set>
       <set comment="band 12">
        <r>  0.0026  0.0132  0.1075  0.0817  0.0033  0.0010  0.0024  0.0000  0.0003 </r>
        <r>  0.0033  0.0085  0.1371  0.0098  0.0006  0.0067  0.0000  0.0024  0.0011 </r>
        <r>  0.0026  0.0430  0.1075  0.0519  0.0018  0.0003  0.0024  0.0007  0.0018 </r>
       </set>
       <set comment="band 13">
        <r>  0.0005  0.0153  0.0053  0.0025  0.0180  0.0016  0.0098  0.0107  0.0054 </r>
        <r>  0.0000  0.0168  0.0439  0.0265  0.0073  0.0036  0.0026  0.0037  0.0025 </r>
        <r>  0.0005  0.0102  0.0053  0.0076  0.0172  0.0080  0.0098  0.0043  0.0063 </r>
       </set>
       <set comment="band 14">
        <r>  0.0002  0.0174  0.0086  0.0007  0.0047  0.0085  0.0139  0.0092  0.0085 </r>
        <r>  0.0015  0.0063  0.0159  0.0128  0.0195  0.0093  0.0304  0.0104  0.0074 </r>
        <r>  0.0002  0.0060  0.0086  0.0121  0.0105  0.0099  0.0139  0.0078  0.0028 </r>
       </set>
       <set comment="band 15">
        <r>  0.0031  0.0072  0.0000  0.0328  0.0159  0.0040  0.0322  0.0052  0.0088 </r>
        <r>  0.0026  0.0075  0.0001  0.0025  0.0078  0.0078  0.0060  0.0223  0.0219 </r>
        <r>  0.0031  0.0152  0.0000  0.0248  0.0131  0.0082  0.0322  0.0010  0.0116 </r>
       </set>
       <set comment="band 16">
        <r>  0.0075  0.0092  0.0003  0.0045  0.0009  0.0313  0.0180  0.0110  0.0138 </r>
        <r>  0.0008  0.0052  0.0002  0.0083  0.0234  0.0032  0.0135  0.0012  0.0254 </r>
        <r>  0.0075  0.0051  0.0003  0.0086  0.0085  0.0305  0.0180  0.0118  0.0062 </r>
       </set>
       <set comment="band 17">
        <r>  0.0246  0.0055  0.0106  0.0029  0.0031  0.0085  0.0047  0.0211  0.0068 </r>
        <r>  0.0305  0.0100  0.0405  0.0210  0.0001  0.0008  0.0018  0.0018  0.0002 </r>
        <r>  0.0246  0.0007  0.0106  0.0077  0.0093  0.0064  0.0047  0.0232  0.0006 </r>
       </set>
       <set comment="band 18">
        <r>  0.0032  0.0005  0.0002  0.0009  0.0158  0.0605  0.0028  0.0032  0.0251 </r>
        <r>  0.0005  0.0124  0.0000  0.0113  0.0031  0.0639  0.0094  0.0243  0.0066 </r>
        <r>  0.0032  0.0013  0.0002  0.0001  0.0063  0.0292  0.0028  0.0345  0.0345 </r>
       </set>
       <set comment="band 19">
        <r>  0.0159  0.0002  0.0006  0.0070  0.0293  0.0132  0.0146  0.0024  0.0319 </r>
        <r>  0.0074  0.0074  0.0041  0.0221  0.0332  0.0048  0.0177  0.0058  0.0213 </r>
        <r>  0.0159  0.0056  0.0006  0.0016  0.0187  0.0020  0.0146  0.0135  0.0425 </r>
       </set>
       <set comment="band 20">
        <r>  0.0043  0.0002  0.0009  0.0077  0.0215  0.0186  0.0056  0.0017  0.0311 </r>
        <r>  0.0078  0.0037  0.0005  0.0012  0.0107  0.0258  0.0075  0.0100  0.0290 </r>
        <r>  0.0043  0.0048  0.0009  0.0031  0.0237  0.0086  0.0056  0.0118  0.0289 </r>
       </set>
       <set comment="band 21">
        <r>  0.0059  0.0180  0.0075  0.0239  0.0133  0.0015  0.0039  0.0146  0.0162 </r>
        <r>  0.0127  0.0051  0.0003  0.0092  0.0066  0.0196  0.0357  0.0307  0.0196 </r>
        <r>  0.0059  0.0049  0.0075  0.0369  0.0140  0.0105  0.0039  0.0056  0.0155 </r>
       </set>
       <set comment="band 22">
        <r>  0.0098  0.0019  0.0007  0.0261  0.0224  0.0032  0.0919  0.0101  0.0134 </r>
        <r>  0.0023  0.0005  0.0009  0.0005  0.0226  0.0080  0.0138  0.0100  0.0078 </r>
        <r>  0.0098  0.0140  0.0007  0.0141  0.0291  0.0036  0.0920  0.0098  0.0067 </r>
       </set>
       <set comment="band 23">
        <r>  0.0014  0.0038  0.0008  0.0085  0.0041  0.0146  0.0069  0.0092  0.0563 </r>
        <r>  0.0028  0.0132  0.0019  0.0058  0.0204  0.0171  0.0038  0.0103  0.0598 </r>
        <r>  0.0014  0.0119  0.0008  0.0004  0.0315  0.0188  0.0069  0.0050  0.0290 </r>
       </set>
       <set comment="band 24">
        <r>  0.0024  0.0025  0.0046  0.0052  0.0169  0.0087  0.0225  0.0112  0.0246 </r>
        <r>  0.0057  0.0136  0.0002  0.0388  0.0217  0.0006  0.0636  0.0010  0.0168 </r>
        <r>  0.0024  0.0027  0.0046  0.0051  0.0127  0.0021  0.0225  0.0178  0.0288 </r>
       </set>
       <set comment="band 25">
        <r>  0.0012  0.0154  0.0013  0.0018  0.0118  0.0062  0.0033  0.0018  0.0033 </r>
        <r>  0.0039  0.0031  0.0042  0.0012  0.0269  0.0055  0.0232  0.0105  0.0163 </r>
        <r>  0.0012  0.0008  0.0013  0.0164  0.0029  0.0050  0.0033  0.0030  0.0122 </r>
       </set>
       <set comment="band 26">
        <r>  0.0004  0.0061  0.0052  0.0005  0.0315  0.0014  0.0045  0.0166  0.0246 </r>
        <r>  0.0002  0.0010  0.0027  0.0031  0.0141  0.0038  0.0003  0.0111  0.0373 </r>
        <r>  0.0004  0.0006  0.0052  0.0060  0.0090  0.0104  0.0045  0.0075  0.0471 </r>
       </set>
       <set comment="band 27">
        <r>  0.0026  0.0130  0.0225  0.0028  0.0012  0.0345  0.0044  0.0693  0.0202 </r>
        <r>  0.0003  0.0169  0.0001  0.0057  0.0141  0.0450  0.0147  0.0164  0.0263 </r>
        <r>  0.0026  0.0071  0.0225  0.0088  0.0119  0.0620  0.0044  0.0418  0.0095 </r>
       </set>
       <set comment="band 28">
        <r>  0.0018  0.0058  0.0344  0.0103  0.0065  0.0217  0.0157  0.0577  0.0168 </r>
        <r>  0.0094  0.0030  0.0197  0.0078  0.0027  0.0242  0.0071  0.0575  0.0078 </r>
        <r>  0.0018  0.0148  0.0344  0.0013  0.0199  0.0483  0.0157  0.0311  0.0034 </r>
       </set>
       <set comment="band 29">
        <r>  0.0034  0.0160  0.0004  0.0139  0.0007  0.0244  0.0003  0.0366  0.0231 </r>
        <r>  0.0001  0.0099  0.0065  0.0081  0.0043  0.0075  0.0005  0.0154  0.0128 </r>
        <r>  0.0034  0.0183  0.0004  0.0117  0.0140  0.0595  0.0003  0.0016  0.0098 </r>
       </set>
       <set comment="band 30">
        <r>  0.0017  0.0060  0.0239  0.0188  0.0584  0.0346  0.0049  0.0818  0.0103 </r>
        <r>  0.0162  0.0008  0.0184  0.0023  0.0419  0.0250  0.0000  0.0614  0.0311 </r>
        <r>  0.0017  0.0100  0.0239  0.0147  0.0318  0.0293  0.0049  0.0875  0.0372 </r>
       </set>
       <set comment="band 31">
        <r>  0.0153  0.0110  0.0082  0.0045  0.0102  0.0308  0.0126  0.0174  0.0185 </r>
        <r>  0.0058  0.0167  0.0000  0.0122  0.0080  0.0153  0.0049  0.0140  0.0082 </r>
        <r>  0.0154  0.0064  0.0078  0.0081  0.0079  0.0110  0.0136  0.0341  0.0209 </r>
       </set>
       <set comment="band 32">
        <r>  0.0017  0.0052  0.0072  0.0001  0.0461  0.0491  0.0653  0.0310  0.0028 </r>
        <r>  0.0001  0.0012  0.0131  0.0025  0.0439  0.0240  0.0940  0.0546  0.0187 </r>
        <r>  0.0018  0.0013  0.0072  0.0040  0.0237  0.0020  0.0662  0.0779  0.0257 </r>
       </set>
      </set>
      <set comment="kpoint 60">
       <set comment="band 1">
        <r>  0.1318  0.0003  0.0035  0.0011  0.0002  0.0000  0.0000  0.0008  0.0000 </r>
        <r>  0.3987  0.0022  0.0000  0.0007  0.0002  0.0001  0.0001  0.0004  0.0001 </r>
        <r>  0.1319  0.0014  0.0035  0.0000  0.0001  0.0006  0.0000  0.0002  0.0002 </r>
       </set>
       <set comment="band 2">
        <r>  0.3290  0.0008  0.0005  0.0062  0.0000  0.0003  0.0001  0.0003  0.0000 </r>
        <r>  0.0000  0.0013  0.0089  0.0040  0.0000  0.0004  0.0000  0.0001  0.0001 </r>
        <r>  0.3290  0.0029  0.0005  0.0042  0.0001  0.0001  0.0001  0.0005  0.0000 </r>
       </set>
       <set comment="band 3">
        <r>  0.2054  0.0013  0.0017  0.0102  0.0000  0.0001  0.0000  0.0000  0.0000 </r>
        <r>  0.2596  0.0004  0.0000  0.0001  0.0001  0.0001  0.0000  0.0004  0.0000 </r>
        <r>  0.2054  0.0048  0.0017  0.0066  0.0000  0.0000  0.0000  0.0000  0.0000 </r>
       </set>
       <set comment="band 4">
        <r>  0.0021  0.0192  0.0625  0.0486  0.0002  0.0000  0.0000  0.0002  0.0001 </r>
        <r>  0.0000  0.0285  0.0050  0.0856  0.0000  0.0001  0.0000  0.0000  0.0001 </r>
        <r>  0.0021  0.0148  0.0625  0.0530  0.0002  0.0001  0.0000  0.0000  0.0001 </r>
       </set>
       <set comment="band 5">
        <r>  0.0130  0.0571  0.0220  0.0614  0.0018  0.0003  0.0000  0.0010  0.0000 </r>
        <r>  0.0000  0.0016  0.1777  0.0049  0.0002  0.0031  0.0000  0.0010  0.0005 </r>
        <r>  0.0130  0.1116  0.0220  0.0069  0.0007  0.0004  0.0000  0.0009  0.0012 </r>
       </set>
       <set comment="band 6">
        <r>  0.0037  0.0007  0.0766  0.0543  0.0005  0.0007  0.0000  0.0001  0.0007 </r>
        <r>  0.0552  0.1178  0.0000  0.0393  0.0016  0.0000  0.0001  0.0001  0.0005 </r>
        <r>  0.0037  0.0357  0.0765  0.0192  0.0012  0.0005  0.0000  0.0003  0.0000 </r>
       </set>
       <set comment="band 7">
        <r>  0.0078  0.1142  0.0213  0.0001  0.0002  0.0024  0.0004  0.0011  0.0001 </r>
        <r>  0.0131  0.1052  0.0000  0.0351  0.0021  0.0001  0.0001  0.0002  0.0007 </r>
        <r>  0.0078  0.0262  0.0213  0.0881  0.0000  0.0028  0.0004  0.0007  0.0003 </r>
       </set>
       <set comment="band 8">
        <r>  0.0088  0.1291  0.0387  0.0018  0.0016  0.0004  0.0000  0.0022  0.0004 </r>
        <r>  0.0000  0.0012  0.0917  0.0035  0.0000  0.0011  0.0000  0.0004  0.0000 </r>
        <r>  0.0088  0.0468  0.0387  0.0841  0.0013  0.0026  0.0000  0.0001  0.0006 </r>
       </set>
       <set comment="band 9">
        <r>  0.0272  0.0105  0.0354  0.0511  0.0000  0.0018  0.0011  0.0052  0.0000 </r>
        <r>  0.0000  0.0667  0.0294  0.2002  0.0000  0.0004  0.0000  0.0001  0.0000 </r>
        <r>  0.0272  0.0209  0.0354  0.0407  0.0000  0.0017  0.0011  0.0054  0.0000 </r>
       </set>
       <set comment="band 10">
        <r>  0.0150  0.0014  0.0893  0.1288  0.0006  0.0008  0.0032  0.0033  0.0001 </r>
        <r>  0.0118  0.0043  0.0000  0.0014  0.0016  0.0019  0.0069  0.0056  0.0005 </r>
        <r>  0.0150  0.0855  0.0893  0.0447  0.0005  0.0012  0.0032  0.0029  0.0002 </r>
       </set>
       <set comment="band 11">
        <r>  0.0004  0.1191  0.0386  0.0280  0.0000  0.0006  0.0014  0.0035  0.0003 </r>
        <r>  0.0058  0.1356  0.0000  0.0452  0.0007  0.0027  0.0037  0.0080  0.0002 </r>
        <r>  0.0004  0.1009  0.0386  0.0463  0.0003  0.0015  0.0014  0.0026  0.0000 </r>
       </set>
       <set comment="band 12">
        <r>  0.0006  0.0118  0.1135  0.0765  0.0040  0.0009  0.0027  0.0000  0.0009 </r>
        <r>  0.0000  0.0020  0.1385  0.0059  0.0004  0.0090  0.0000  0.0030  0.0011 </r>
        <r>  0.0006  0.0343  0.1136  0.0540  0.0032  0.0001  0.0027  0.0008  0.0016 </r>
       </set>
       <set comment="band 13">
        <r>  0.0000  0.0003  0.0090  0.0011  0.0157  0.0005  0.0105  0.0160  0.0109 </r>
        <r>  0.0000  0.0119  0.0729  0.0357  0.0000  0.0055  0.0000  0.0018  0.0001 </r>
        <r>  0.0000  0.0015  0.0090  0.0000  0.0234  0.0145  0.0105  0.0020  0.0032 </r>
       </set>
       <set comment="band 14">
        <r>  0.0001  0.0435  0.0061  0.0011  0.0065  0.0078  0.0115  0.0016  0.0008 </r>
        <r>  0.0011  0.0136  0.0000  0.0045  0.0313  0.0040  0.0248  0.0120  0.0104 </r>
        <r>  0.0001  0.0177  0.0061  0.0269  0.0043  0.0001  0.0115  0.0092  0.0031 </r>
       </set>
       <set comment="band 15">
        <r>  0.0003  0.0002  0.0000  0.0032  0.0059  0.0926  0.0047  0.0193  0.0030 </r>
        <r>  0.0000  0.0005  0.0002  0.0016  0.0077  0.0586  0.0000  0.0195  0.0230 </r>
        <r>  0.0003  0.0033  0.0000  0.0002  0.0001  0.0742  0.0047  0.0377  0.0088 </r>
       </set>
       <set comment="band 16">
        <r>  0.0333  0.0002  0.0001  0.0270  0.0300  0.0084  0.0105  0.0022  0.0034 </r>
        <r>  0.0289  0.0204  0.0000  0.0068  0.0121  0.0084  0.0001  0.0251  0.0040 </r>
        <r>  0.0333  0.0183  0.0001  0.0090  0.0188  0.0000  0.0105  0.0106  0.0146 </r>
       </set>
       <set comment="band 17">
        <r>  0.0003  0.0077  0.0014  0.0258  0.0034  0.0068  0.0482  0.0001  0.0003 </r>
        <r>  0.0000  0.0084  0.0004  0.0251  0.0036  0.0050  0.0000  0.0017  0.0107 </r>
        <r>  0.0003  0.0091  0.0014  0.0245  0.0002  0.0025  0.0482  0.0044  0.0035 </r>
       </set>
       <set comment="band 18">
        <r>  0.0010  0.0183  0.0019  0.0042  0.0016  0.0025  0.0006  0.0221  0.0427 </r>
        <r>  0.0000  0.0196  0.0268  0.0587  0.0047  0.0084  0.0000  0.0028  0.0142 </r>
        <r>  0.0010  0.0001  0.0019  0.0223  0.0253  0.0107  0.0006  0.0139  0.0191 </r>
       </set>
       <set comment="band 19">
        <r>  0.0173  0.0150  0.0019  0.0407  0.0007  0.0026  0.0294  0.0009  0.0052 </r>
        <r>  0.0022  0.0032  0.0000  0.0011  0.0168  0.0021  0.1081  0.0062  0.0056 </r>
        <r>  0.0173  0.0129  0.0019  0.0428  0.0024  0.0000  0.0294  0.0035  0.0034 </r>
       </set>
       <set comment="band 20">
        <r>  0.0002  0.0000  0.0009  0.0095  0.0271  0.0126  0.0070  0.0008  0.0712 </r>
        <r>  0.0000  0.0097  0.0082  0.0290  0.0086  0.0138  0.0000  0.0046  0.0257 </r>
        <r>  0.0002  0.0071  0.0009  0.0025  0.0222  0.0010  0.0070  0.0124  0.0761 </r>
       </set>
       <set comment="band 21">
        <r>  0.0041  0.0009  0.0019  0.0038  0.0011  0.0061  0.0050  0.0065  0.0726 </r>
        <r>  0.0301  0.0098  0.0000  0.0033  0.0030  0.0017  0.0013  0.0051  0.0010 </r>
        <r>  0.0041  0.0047  0.0019  0.0000  0.0470  0.0119  0.0050  0.0008  0.0267 </r>
       </set>
       <set comment="band 22">
        <r>  0.0022  0.0014  0.0002  0.0044  0.0220  0.0076  0.0033  0.0001  0.0309 </r>
        <r>  0.0000  0.0000  0.0000  0.0001  0.0436  0.0338  0.0000  0.0113  0.1307 </r>
        <r>  0.0022  0.0059  0.0002  0.0000  0.0061  0.0028  0.0033  0.0049  0.0468 </r>
       </set>
       <set comment="band 23">
        <r>  0.0126  0.0002  0.0013  0.0022  0.0285  0.0060  0.0788  0.0159  0.0002 </r>
        <r>  0.0010  0.0000  0.0000  0.0000  0.0061  0.0036  0.0620  0.0109  0.0020 </r>
        <r>  0.0126  0.0012  0.0013  0.0013  0.0095  0.0049  0.0788  0.0169  0.0193 </r>
       </set>
       <set comment="band 24">
        <r>  0.0005  0.0085  0.0001  0.0015  0.0000  0.0061  0.0001  0.0080  0.0067 </r>
        <r>  0.0001  0.0037  0.0000  0.0012  0.0073  0.0000  0.0013  0.0001  0.0024 </r>
        <r>  0.0005  0.0002  0.0001  0.0098  0.0049  0.0136  0.0001  0.0005  0.0018 </r>
       </set>
       <set comment="band 25">
        <r>  0.0040  0.0099  0.0332  0.0168  0.0097  0.0140  0.0016  0.0071  0.0000 </r>
        <r>  0.0250  0.0051  0.0000  0.0017  0.0769  0.0305  0.0144  0.0916  0.0256 </r>
        <r>  0.0040  0.0039  0.0332  0.0228  0.0021  0.0002  0.0016  0.0209  0.0076 </r>
       </set>
       <set comment="band 26">
        <r>  0.0139  0.0072  0.0061  0.0000  0.0681  0.0318  0.0121  0.0858  0.0240 </r>
        <r>  0.0000  0.0034  0.0172  0.0102  0.0007  0.0178  0.0000  0.0059  0.0021 </r>
        <r>  0.0139  0.0017  0.0061  0.0055  0.0701  0.0271  0.0121  0.0905  0.0220 </r>
       </set>
       <set comment="band 27">
        <r>  0.0001  0.0377  0.0001  0.0133  0.0123  0.0130  0.0013  0.0108  0.0003 </r>
        <r>  0.0000  0.0066  0.0269  0.0188  0.0288  0.0566  0.0000  0.0177  0.0824 </r>
        <r>  0.0001  0.0392  0.0002  0.0117  0.0017  0.0234  0.0011  0.0024  0.0119 </r>
       </set>
       <set comment="band 28">
        <r>  0.0018  0.0085  0.0233  0.0023  0.0367  0.0443  0.0086  0.0783  0.0469 </r>
        <r>  0.0006  0.0420  0.0000  0.0142  0.0050  0.0025  0.0036  0.0058  0.0015 </r>
        <r>  0.0019  0.0002  0.0228  0.0110  0.0083  0.1182  0.0086  0.0017  0.0747 </r>
       </set>
       <set comment="band 29">
        <r>  0.0004  0.0002  0.0162  0.0004  0.0618  0.0037  0.0003  0.0582  0.0000 </r>
        <r>  0.0035  0.0008  0.0000  0.0003  0.0638  0.0104  0.0921  0.0334  0.0223 </r>
        <r>  0.0004  0.0001  0.0159  0.0005  0.0162  0.0309  0.0003  0.0305  0.0455 </r>
       </set>
       <set comment="band 30">
        <r>  0.0015  0.0001  0.0049  0.0088  0.0200  0.0247  0.0738  0.1321  0.0061 </r>
        <r>  0.0004  0.0037  0.0232  0.0112  0.0006  0.0021  0.0000  0.0037  0.0016 </r>
        <r>  0.0015  0.0057  0.0060  0.0017  0.0218  0.0684  0.0699  0.0977  0.0077 </r>
       </set>
       <set comment="band 31">
        <r>  0.0008  0.0046  0.0318  0.0236  0.0061  0.0694  0.0022  0.0606  0.0006 </r>
        <r>  0.0166  0.0023  0.0006  0.0010  0.0023  0.0414  0.0013  0.1308  0.0013 </r>
        <r>  0.0010  0.0098  0.0293  0.0190  0.0030  0.1070  0.0027  0.0202  0.0026 </r>
       </set>
       <set comment="band 32">
        <r>  0.0025  0.0015  0.0017  0.0005  0.0321  0.0970  0.0925  0.0084  0.0579 </r>
        <r>  0.0034  0.0045  0.0000  0.0031  0.1011  0.0118  0.0818  0.0677  0.0458 </r>
        <r>  0.0013  0.0004  0.0003  0.0008  0.0938  0.0058  0.0958  0.0759  0.0016 </r>
       </set>
      </set>
      <set comment="kpoint 61">
       <set comment="band 1">
        <r>  0.3129  0.0005  0.0025  0.0020  0.0000  0.0001  0.0000  0.0001  0.0001 </r>
        <r>  0.3129  0.0014  0.0025  0.0011  0.0001  0.0000  0.0000  0.0002  0.0000 </r>
        <r>  0.0000  0.0001  0.0086  0.0003  0.0000  0.0005  0.0000  0.0002  0.0001 </r>
       </set>
       <set comment="band 2">
        <r>  0.1016  0.0009  0.0070  0.0008  0.0001  0.0001  0.0000  0.0003  0.0000 </r>
        <r>  0.1016  0.0015  0.0070  0.0001  0.0000  0.0004  0.0000  0.0000  0.0001 </r>
        <r>  0.4197  0.0032  0.0000  0.0011  0.0000  0.0000  0.0000  0.0001  0.0000 </r>
       </set>
       <set comment="band 3">
        <r>  0.2555  0.0019  0.0001  0.0030  0.0000  0.0001  0.0000  0.0001  0.0000 </r>
        <r>  0.2555  0.0045  0.0001  0.0004  0.0000  0.0001  0.0000  0.0001  0.0000 </r>
        <r>  0.2554  0.0067  0.0000  0.0022  0.0000  0.0000  0.0000  0.0001  0.0000 </r>
       </set>
       <set comment="band 4">
        <r>  0.0032  0.0632  0.0637  0.0217  0.0013  0.0003  0.0001  0.0017  0.0005 </r>
        <r>  0.0032  0.0431  0.0637  0.0417  0.0003  0.0012  0.0001  0.0008  0.0016 </r>
        <r>  0.0000  0.0050  0.1514  0.0150  0.0003  0.0016  0.0000  0.0005  0.0010 </r>
       </set>
       <set comment="band 5">
        <r>  0.0100  0.0007  0.0687  0.1175  0.0000  0.0006  0.0002  0.0005  0.0003 </r>
        <r>  0.0100  0.0924  0.0687  0.0258  0.0003  0.0005  0.0002  0.0006  0.0000 </r>
        <r>  0.0000  0.0195  0.0038  0.0585  0.0005  0.0015  0.0000  0.0005  0.0015 </r>
       </set>
       <set comment="band 6">
        <r>  0.0198  0.0136  0.0552  0.0355  0.0003  0.0006  0.0000  0.0014  0.0010 </r>
        <r>  0.0198  0.0110  0.0552  0.0381  0.0004  0.0016  0.0000  0.0004  0.0009 </r>
        <r>  0.0091  0.1583  0.0000  0.0528  0.0007  0.0000  0.0004  0.0001  0.0002 </r>
       </set>
       <set comment="band 7">
        <r>  0.0039  0.1010  0.0613  0.0273  0.0002  0.0005  0.0002  0.0010  0.0000 </r>
        <r>  0.0039  0.0003  0.0613  0.1280  0.0000  0.0015  0.0002  0.0001  0.0002 </r>
        <r>  0.0000  0.0109  0.0422  0.0326  0.0002  0.0021  0.0000  0.0007  0.0005 </r>
       </set>
       <set comment="band 8">
        <r>  0.0071  0.1409  0.0050  0.0531  0.0000  0.0000  0.0011  0.0003  0.0006 </r>
        <r>  0.0071  0.1411  0.0050  0.0529  0.0004  0.0002  0.0011  0.0001  0.0003 </r>
        <r>  0.0331  0.0356  0.0000  0.0119  0.0001  0.0008  0.0014  0.0025  0.0000 </r>
       </set>
       <set comment="band 9">
        <r>  0.0130  0.0065  0.0102  0.0379  0.0006  0.0006  0.0003  0.0014  0.0024 </r>
        <r>  0.0130  0.0193  0.0102  0.0251  0.0026  0.0006  0.0003  0.0014  0.0005 </r>
        <r>  0.0000  0.0746  0.0883  0.2237  0.0001  0.0000  0.0000  0.0000  0.0002 </r>
       </set>
       <set comment="band 10">
        <r>  0.0118  0.0524  0.0535  0.1086  0.0016  0.0014  0.0003  0.0040  0.0004 </r>
        <r>  0.0118  0.0332  0.0535  0.1278  0.0011  0.0013  0.0003  0.0041  0.0009 </r>
        <r>  0.0244  0.0054  0.0000  0.0018  0.0049  0.0004  0.0029  0.0011  0.0016 </r>
       </set>
       <set comment="band 11">
        <r>  0.0001  0.0344  0.0939  0.0364  0.0024  0.0002  0.0065  0.0014  0.0008 </r>
        <r>  0.0001  0.0462  0.0939  0.0246  0.0013  0.0016  0.0065  0.0000  0.0019 </r>
        <r>  0.0098  0.1600  0.0000  0.0533  0.0005  0.0005  0.0018  0.0016  0.0002 </r>
       </set>
       <set comment="band 12">
        <r>  0.0101  0.0770  0.0353  0.0449  0.0011  0.0015  0.0013  0.0024  0.0014 </r>
        <r>  0.0101  0.0909  0.0353  0.0311  0.0010  0.0038  0.0013  0.0001  0.0015 </r>
        <r>  0.0000  0.0107  0.1883  0.0320  0.0007  0.0023  0.0000  0.0008  0.0020 </r>
       </set>
       <set comment="band 13">
        <r>  0.0003  0.0044  0.0058  0.0019  0.0118  0.0108  0.0003  0.0034  0.0142 </r>
        <r>  0.0003  0.0036  0.0058  0.0027  0.0028  0.0042  0.0003  0.0099  0.0232 </r>
        <r>  0.0000  0.0064  0.0063  0.0191  0.0087  0.0106  0.0000  0.0035  0.0260 </r>
       </set>
       <set comment="band 14">
        <r>  0.0011  0.0014  0.0036  0.0009  0.0030  0.0007  0.0438  0.0014  0.0113 </r>
        <r>  0.0011  0.0002  0.0036  0.0021  0.0136  0.0015  0.0438  0.0006  0.0008 </r>
        <r>  0.0004  0.0160  0.0000  0.0053  0.0022  0.0027  0.0517  0.0082  0.0007 </r>
       </set>
       <set comment="band 15">
        <r>  0.0006  0.0089  0.0177  0.0073  0.0344  0.0129  0.0083  0.0078  0.0025 </r>
        <r>  0.0006  0.0139  0.0177  0.0023  0.0115  0.0036  0.0083  0.0171  0.0254 </r>
        <r>  0.0047  0.0002  0.0000  0.0001  0.0366  0.0028  0.0023  0.0085  0.0122 </r>
       </set>
       <set comment="band 16">
        <r>  0.0150  0.0089  0.0084  0.0064  0.0023  0.0274  0.0093  0.0285  0.0019 </r>
        <r>  0.0150  0.0114  0.0084  0.0039  0.0035  0.0325  0.0093  0.0234  0.0007 </r>
        <r>  0.0000  0.0002  0.0308  0.0005  0.0028  0.0388  0.0000  0.0129  0.0084 </r>
       </set>
       <set comment="band 17">
        <r>  0.0025  0.0031  0.0482  0.0107  0.0090  0.0141  0.0076  0.0029  0.0097 </r>
        <r>  0.0025  0.0115  0.0482  0.0023  0.0108  0.0113  0.0076  0.0057  0.0079 </r>
        <r>  0.0052  0.0128  0.0000  0.0043  0.0121  0.0079  0.0259  0.0237  0.0040 </r>
       </set>
       <set comment="band 18">
        <r>  0.0112  0.0014  0.0101  0.0039  0.0130  0.0190  0.0004  0.0070  0.0348 </r>
        <r>  0.0112  0.0013  0.0101  0.0040  0.0299  0.0189  0.0004  0.0071  0.0179 </r>
        <r>  0.0385  0.0011  0.0000  0.0004  0.0053  0.0023  0.0101  0.0069  0.0018 </r>
       </set>
       <set comment="band 19">
        <r>  0.0151  0.0061  0.0007  0.0036  0.0110  0.0016  0.0098  0.0000  0.0444 </r>
        <r>  0.0151  0.0069  0.0007  0.0028  0.0356  0.0006  0.0098  0.0010  0.0198 </r>
        <r>  0.0000  0.0029  0.0022  0.0088  0.0147  0.0104  0.0000  0.0035  0.0440 </r>
       </set>
       <set comment="band 20">
        <r>  0.0046  0.0011  0.0034  0.0000  0.0152  0.0108  0.0038  0.0053  0.0021 </r>
        <r>  0.0046  0.0002  0.0034  0.0009  0.0039  0.0048  0.0038  0.0113  0.0134 </r>
        <r>  0.0000  0.0021  0.0071  0.0063  0.0086  0.0024  0.0000  0.0008  0.0258 </r>
       </set>
       <set comment="band 21">
        <r>  0.0007  0.0104  0.0122  0.0268  0.0079  0.0134  0.0041  0.0229  0.0097 </r>
        <r>  0.0007  0.0105  0.0122  0.0266  0.0017  0.0223  0.0041  0.0140  0.0159 </r>
        <r>  0.0124  0.0018  0.0000  0.0006  0.0254  0.0298  0.0072  0.0895  0.0085 </r>
       </set>
       <set comment="band 22">
        <r>  0.0081  0.0024  0.0064  0.0003  0.0094  0.0184  0.0083  0.1211  0.0054 </r>
        <r>  0.0081  0.0003  0.0064  0.0024  0.0125  0.0546  0.0083  0.0850  0.0023 </r>
        <r>  0.0000  0.0037  0.0424  0.0112  0.0025  0.0108  0.0000  0.0036  0.0075 </r>
       </set>
       <set comment="band 23">
        <r>  0.0013  0.0122  0.0131  0.0134  0.0086  0.0101  0.0054  0.0103  0.0030 </r>
        <r>  0.0013  0.0072  0.0131  0.0185  0.0061  0.0181  0.0054  0.0024  0.0056 </r>
        <r>  0.0075  0.0049  0.0000  0.0016  0.0695  0.0108  0.0124  0.0324  0.0232 </r>
       </set>
       <set comment="band 24">
        <r>  0.0188  0.0006  0.0004  0.0028  0.0623  0.0051  0.0382  0.0047  0.0155 </r>
        <r>  0.0188  0.0027  0.0004  0.0007  0.0524  0.0006  0.0383  0.0092  0.0254 </r>
        <r>  0.0000  0.0065  0.0055  0.0195  0.0001  0.0060  0.0000  0.0020  0.0002 </r>
       </set>
       <set comment="band 25">
        <r>  0.0033  0.0045  0.0142  0.0051  0.0029  0.0819  0.0020  0.0143  0.0014 </r>
        <r>  0.0033  0.0070  0.0142  0.0027  0.0027  0.0333  0.0020  0.0629  0.0016 </r>
        <r>  0.0000  0.0000  0.0394  0.0000  0.0003  0.1328  0.0000  0.0443  0.0010 </r>
       </set>
       <set comment="band 26">
        <r>  0.0053  0.0173  0.0002  0.0048  0.0025  0.0045  0.0320  0.0052  0.0287 </r>
        <r>  0.0053  0.0149  0.0002  0.0072  0.0181  0.0059  0.0320  0.0038  0.0131 </r>
        <r>  0.0117  0.0595  0.0000  0.0198  0.0085  0.0002  0.1413  0.0007  0.0028 </r>
       </set>
       <set comment="band 27">
        <r>  0.0003  0.0399  0.0000  0.0116  0.0181  0.0011  0.0775  0.0003  0.0089 </r>
        <r>  0.0003  0.0342  0.0000  0.0173  0.0026  0.0010  0.0775  0.0004  0.0244 </r>
        <r>  0.0000  0.0047  0.0005  0.0141  0.0126  0.0054  0.0000  0.0018  0.0377 </r>
       </set>
       <set comment="band 28">
        <r>  0.0000  0.0001  0.0129  0.0014  0.0152  0.0999  0.0046  0.0309  0.0091 </r>
        <r>  0.0000  0.0013  0.0130  0.0002  0.0091  0.0766  0.0045  0.0541  0.0153 </r>
        <r>  0.0019  0.0017  0.0000  0.0006  0.0154  0.0222  0.0082  0.0667  0.0051 </r>
       </set>
       <set comment="band 29">
        <r>  0.0040  0.0047  0.0035  0.0028  0.0345  0.0044  0.0087  0.0007  0.0005 </r>
        <r>  0.0040  0.0059  0.0035  0.0015  0.0121  0.0030  0.0087  0.0021  0.0230 </r>
        <r>  0.0263  0.0075  0.0000  0.0025  0.0676  0.0009  0.0074  0.0028  0.0225 </r>
       </set>
       <set comment="band 30">
        <r>  0.0174  0.0011  0.0011  0.0002  0.0696  0.0029  0.0017  0.0027  0.0482 </r>
        <r>  0.0174  0.0007  0.0011  0.0006  0.0849  0.0045  0.0017  0.0010  0.0329 </r>
        <r>  0.0000  0.0002  0.0020  0.0006  0.0056  0.0133  0.0000  0.0045  0.0167 </r>
       </set>
       <set comment="band 31">
        <r>  0.0013  0.0036  0.0045  0.0222  0.0121  0.0229  0.0426  0.0138  0.0549 </r>
        <r>  0.0017  0.0123  0.0037  0.0217  0.0385  0.0220  0.0486  0.0091  0.0595 </r>
        <r>  0.0000  0.0037  0.0103  0.0092  0.0161  0.0435  0.0006  0.0189  0.0473 </r>
       </set>
       <set comment="band 32">
        <r>  0.0005  0.0080  0.0007  0.0228  0.0246  0.0014  0.0075  0.0061  0.1077 </r>
        <r>  0.0006  0.0046  0.0044  0.0109  0.0403  0.0304  0.0162  0.0011  0.0478 </r>
        <r>  0.0015  0.0046  0.0009  0.0004  0.0265  0.0194  0.0471  0.0177  0.0081 </r>
       </set>
      </set>
      <set comment="kpoint 62">
       <set comment="band 1">
        <r>  0.2152  0.0007  0.0041  0.0018  0.0001  0.0001  0.0000  0.0004  0.0000 </r>
        <r>  0.3867  0.0024  0.0007  0.0012  0.0002  0.0000  0.0000  0.0003  0.0000 </r>
        <r>  0.0412  0.0008  0.0058  0.0001  0.0001  0.0007  0.0000  0.0002  0.0001 </r>
       </set>
       <set comment="band 2">
        <r>  0.2118  0.0010  0.0032  0.0028  0.0000  0.0002  0.0000  0.0003  0.0001 </r>
        <r>  0.0304  0.0013  0.0079  0.0011  0.0000  0.0005  0.0000  0.0000  0.0001 </r>
        <r>  0.3958  0.0035  0.0005  0.0024  0.0000  0.0000  0.0000  0.0002  0.0000 </r>
       </set>
       <set comment="band 3">
        <r>  0.2396  0.0018  0.0006  0.0060  0.0000  0.0001  0.0000  0.0001  0.0000 </r>
        <r>  0.2456  0.0034  0.0002  0.0007  0.0000  0.0001  0.0000  0.0003  0.0000 </r>
        <r>  0.2333  0.0072  0.0002  0.0044  0.0000  0.0000  0.0000  0.0001  0.0000 </r>
       </set>
       <set comment="band 4">
        <r>  0.0064  0.0364  0.0522  0.0509  0.0007  0.0001  0.0001  0.0011  0.0004 </r>
        <r>  0.0047  0.0438  0.0004  0.0760  0.0002  0.0003  0.0001  0.0004  0.0009 </r>
        <r>  0.0027  0.0043  0.1037  0.0405  0.0004  0.0007  0.0000  0.0004  0.0004 </r>
       </set>
       <set comment="band 5">
        <r>  0.0113  0.0557  0.0295  0.0366  0.0007  0.0004  0.0000  0.0000  0.0011 </r>
        <r>  0.0185  0.0373  0.0950  0.0131  0.0002  0.0014  0.0000  0.0005  0.0009 </r>
        <r>  0.0043  0.0740  0.0385  0.0356  0.0002  0.0002  0.0001  0.0003  0.0004 </r>
       </set>
       <set comment="band 6">
        <r>  0.0063  0.0091  0.0781  0.0596  0.0003  0.0008  0.0001  0.0007  0.0000 </r>
        <r>  0.0125  0.0565  0.0757  0.0435  0.0007  0.0007  0.0000  0.0001  0.0001 </r>
        <r>  0.0050  0.0740  0.0019  0.0373  0.0008  0.0007  0.0000  0.0002  0.0015 </r>
       </set>
       <set comment="band 7">
        <r>  0.0001  0.1762  0.0736  0.0029  0.0004  0.0009  0.0003  0.0006  0.0001 </r>
        <r>  0.0081  0.0364  0.0667  0.0286  0.0003  0.0024  0.0002  0.0001  0.0003 </r>
        <r>  0.0077  0.0297  0.0391  0.0096  0.0003  0.0052  0.0002  0.0000  0.0005 </r>
       </set>
       <set comment="band 8">
        <r>  0.0117  0.0335  0.0186  0.0499  0.0004  0.0002  0.0009  0.0041  0.0002 </r>
        <r>  0.0202  0.1224  0.0379  0.0214  0.0009  0.0007  0.0005  0.0002  0.0003 </r>
        <r>  0.0177  0.0383  0.0263  0.1017  0.0003  0.0001  0.0016  0.0040  0.0000 </r>
       </set>
       <set comment="band 9">
        <r>  0.0279  0.0045  0.0130  0.0638  0.0009  0.0018  0.0003  0.0008  0.0012 </r>
        <r>  0.0026  0.0040  0.0041  0.1347  0.0019  0.0002  0.0009  0.0018  0.0003 </r>
        <r>  0.0134  0.0625  0.0711  0.1260  0.0003  0.0001  0.0003  0.0005  0.0001 </r>
       </set>
       <set comment="band 10">
        <r>  0.0115  0.0638  0.0388  0.1349  0.0004  0.0008  0.0008  0.0023  0.0011 </r>
        <r>  0.0124  0.0517  0.0288  0.1065  0.0005  0.0013  0.0020  0.0049  0.0008 </r>
        <r>  0.0216  0.0392  0.0099  0.0076  0.0036  0.0007  0.0020  0.0005  0.0008 </r>
       </set>
       <set comment="band 11">
        <r>  0.0027  0.0076  0.1534  0.0490  0.0018  0.0008  0.0032  0.0056  0.0002 </r>
        <r>  0.0013  0.0384  0.0499  0.0359  0.0007  0.0001  0.0047  0.0045  0.0009 </r>
        <r>  0.0044  0.0587  0.0476  0.1025  0.0002  0.0004  0.0017  0.0050  0.0001 </r>
       </set>
       <set comment="band 12">
        <r>  0.0015  0.0872  0.0182  0.0243  0.0017  0.0025  0.0037  0.0012  0.0003 </r>
        <r>  0.0022  0.0736  0.0984  0.0084  0.0011  0.0089  0.0010  0.0003  0.0004 </r>
        <r>  0.0009  0.0895  0.1621  0.0004  0.0004  0.0027  0.0003  0.0005  0.0013 </r>
       </set>
       <set comment="band 13">
        <r>  0.0011  0.0014  0.0016  0.0001  0.0175  0.0067  0.0050  0.0058  0.0072 </r>
        <r>  0.0011  0.0043  0.0135  0.0153  0.0068  0.0024  0.0030  0.0096  0.0125 </r>
        <r>  0.0005  0.0171  0.0025  0.0152  0.0126  0.0092  0.0072  0.0079  0.0137 </r>
       </set>
       <set comment="band 14">
        <r>  0.0014  0.0088  0.0099  0.0028  0.0009  0.0008  0.0272  0.0059  0.0191 </r>
        <r>  0.0029  0.0019  0.0118  0.0034  0.0164  0.0013  0.0408  0.0046  0.0030 </r>
        <r>  0.0006  0.0070  0.0005  0.0093  0.0051  0.0131  0.0338  0.0071  0.0016 </r>
       </set>
       <set comment="band 15">
        <r>  0.0034  0.0055  0.0208  0.0075  0.0124  0.0059  0.0139  0.0139  0.0113 </r>
        <r>  0.0006  0.0153  0.0177  0.0031  0.0012  0.0197  0.0035  0.0083  0.0256 </r>
        <r>  0.0007  0.0004  0.0008  0.0141  0.0081  0.0052  0.0175  0.0033  0.0164 </r>
       </set>
       <set comment="band 16">
        <r>  0.0017  0.0269  0.0116  0.0091  0.0039  0.0237  0.0214  0.0173  0.0020 </r>
        <r>  0.0073  0.0156  0.0278  0.0137  0.0041  0.0096  0.0109  0.0112  0.0137 </r>
        <r>  0.0045  0.0033  0.0048  0.0013  0.0160  0.0119  0.0032  0.0088  0.0045 </r>
       </set>
       <set comment="band 17">
        <r>  0.0096  0.0016  0.0007  0.0095  0.0049  0.0447  0.0158  0.0027  0.0007 </r>
        <r>  0.0032  0.0175  0.0008  0.0000  0.0182  0.0219  0.0092  0.0092  0.0118 </r>
        <r>  0.0189  0.0241  0.0000  0.0078  0.0256  0.0143  0.0138  0.0067  0.0084 </r>
       </set>
       <set comment="band 18">
        <r>  0.0146  0.0018  0.0014  0.0038  0.0111  0.0058  0.0014  0.0031  0.0581 </r>
        <r>  0.0220  0.0012  0.0022  0.0033  0.0021  0.0044  0.0137  0.0150  0.0176 </r>
        <r>  0.0032  0.0028  0.0045  0.0048  0.0055  0.0255  0.0066  0.0001  0.0575 </r>
       </set>
       <set comment="band 19">
        <r>  0.0177  0.0156  0.0067  0.0066  0.0215  0.0135  0.0009  0.0073  0.0132 </r>
        <r>  0.0057  0.0094  0.0031  0.0138  0.0453  0.0215  0.0012  0.0132  0.0183 </r>
        <r>  0.0174  0.0008  0.0009  0.0066  0.0001  0.0041  0.0123  0.0497  0.0118 </r>
       </set>
       <set comment="band 20">
        <r>  0.0110  0.0082  0.0052  0.0160  0.0314  0.0239  0.0008  0.0187  0.0066 </r>
        <r>  0.0162  0.0131  0.0160  0.0106  0.0088  0.0388  0.0077  0.0280  0.0020 </r>
        <r>  0.0166  0.0026  0.0083  0.0037  0.0261  0.0249  0.0051  0.0399  0.0012 </r>
       </set>
       <set comment="band 21">
        <r>  0.0009  0.0039  0.0006  0.0018  0.0566  0.0135  0.0282  0.0138  0.0183 </r>
        <r>  0.0036  0.0021  0.0061  0.0024  0.0341  0.0159  0.0320  0.0170  0.0225 </r>
        <r>  0.0018  0.0011  0.0059  0.0115  0.0367  0.0026  0.0056  0.0081  0.0000 </r>
       </set>
       <set comment="band 22">
        <r>  0.0034  0.0020  0.0110  0.0148  0.0247  0.0078  0.0135  0.0360  0.0061 </r>
        <r>  0.0018  0.0007  0.0025  0.0341  0.0097  0.0028  0.0010  0.0520  0.0262 </r>
        <r>  0.0018  0.0019  0.0174  0.0105  0.0219  0.0030  0.0081  0.0304  0.0370 </r>
       </set>
       <set comment="band 23">
        <r>  0.0007  0.0044  0.0051  0.0065  0.0040  0.0118  0.0044  0.0082  0.0105 </r>
        <r>  0.0036  0.0090  0.0011  0.0016  0.0342  0.0097  0.0345  0.0162  0.0032 </r>
        <r>  0.0095  0.0223  0.0028  0.0031  0.0492  0.0073  0.0737  0.0200  0.0169 </r>
       </set>
       <set comment="band 24">
        <r>  0.0005  0.0103  0.0099  0.0106  0.0034  0.0059  0.0090  0.0273  0.0124 </r>
        <r>  0.0001  0.0070  0.0027  0.0016  0.0432  0.0122  0.0218  0.0020  0.0047 </r>
        <r>  0.0015  0.0037  0.0021  0.0013  0.0111  0.0016  0.0050  0.0043  0.0178 </r>
       </set>
       <set comment="band 25">
        <r>  0.0096  0.0041  0.0095  0.0102  0.0235  0.0004  0.0365  0.0701  0.0099 </r>
        <r>  0.0104  0.0042  0.0085  0.0089  0.0047  0.0044  0.0050  0.0201  0.0036 </r>
        <r>  0.0016  0.0051  0.0044  0.0190  0.0061  0.0208  0.0007  0.0089  0.0009 </r>
       </set>
       <set comment="band 26">
        <r>  0.0120  0.0158  0.0106  0.0122  0.0034  0.0058  0.0184  0.0014  0.0024 </r>
        <r>  0.0109  0.0207  0.0017  0.0005  0.0031  0.0133  0.0010  0.0020  0.0051 </r>
        <r>  0.0006  0.0189  0.0130  0.0146  0.0175  0.0256  0.0039  0.0190  0.0030 </r>
       </set>
       <set comment="band 27">
        <r>  0.0021  0.0046  0.0027  0.0163  0.0008  0.0172  0.0652  0.0019  0.1159 </r>
        <r>  0.0012  0.0010  0.0040  0.0189  0.0030  0.0145  0.0522  0.0004  0.1209 </r>
        <r>  0.0009  0.0085  0.0030  0.0005  0.0049  0.0202  0.0274  0.0007  0.0378 </r>
       </set>
       <set comment="band 28">
        <r>  0.0034  0.0023  0.0066  0.0037  0.0019  0.0593  0.0151  0.0073  0.0094 </r>
        <r>  0.0037  0.0037  0.0098  0.0011  0.0000  0.0476  0.0170  0.0461  0.0142 </r>
        <r>  0.0009  0.0011  0.0332  0.0103  0.0037  0.1141  0.0134  0.0337  0.0060 </r>
       </set>
       <set comment="band 29">
        <r>  0.0021  0.0005  0.0017  0.0173  0.0085  0.0114  0.0134  0.0118  0.0393 </r>
        <r>  0.0009  0.0067  0.0014  0.0099  0.0044  0.0036  0.0184  0.0068  0.0154 </r>
        <r>  0.0039  0.0002  0.0039  0.0290  0.0048  0.0262  0.0476  0.0073  0.0649 </r>
       </set>
       <set comment="band 30">
        <r>  0.0030  0.0037  0.0096  0.0027  0.0947  0.0656  0.0200  0.0421  0.0156 </r>
        <r>  0.0045  0.0128  0.0170  0.0116  0.0593  0.0103  0.0279  0.0040  0.0647 </r>
        <r>  0.0039  0.0130  0.0147  0.0036  0.0066  0.0174  0.0209  0.0513  0.0099 </r>
       </set>
       <set comment="band 31">
        <r>  0.0037  0.0235  0.0043  0.0034  0.0272  0.0786  0.0224  0.0766  0.0007 </r>
        <r>  0.0036  0.0003  0.0129  0.0085  0.0301  0.0135  0.0347  0.0649  0.0035 </r>
        <r>  0.0025  0.0098  0.0142  0.0047  0.0241  0.0379  0.0114  0.0001  0.0453 </r>
       </set>
       <set comment="band 32">
        <r>  0.0021  0.0113  0.0315  0.0052  0.0001  0.0073  0.0043  0.0017  0.0156 </r>
        <r>  0.0025  0.0074  0.0017  0.0064  0.0039  0.1588  0.0004  0.0315  0.0068 </r>
        <r>  0.0098  0.0231  0.0122  0.0005  0.0241  0.0554  0.0025  0.0960  0.0446 </r>
       </set>
      </set>
      <set comment="kpoint 63">
       <set comment="band 1">
        <r>  0.1548  0.0007  0.0037  0.0014  0.0002  0.0000  0.0000  0.0007  0.0000 </r>
        <r>  0.4036  0.0027  0.0001  0.0009  0.0002  0.0001  0.0001  0.0003  0.0001 </r>
        <r>  0.1024  0.0015  0.0037  0.0000  0.0001  0.0007  0.0000  0.0002  0.0002 </r>
       </set>
       <set comment="band 2">
        <r>  0.2952  0.0009  0.0010  0.0052  0.0000  0.0003  0.0000  0.0004  0.0001 </r>
        <r>  0.0054  0.0013  0.0079  0.0031  0.0000  0.0005  0.0000  0.0001  0.0001 </r>
        <r>  0.3563  0.0032  0.0006  0.0037  0.0001  0.0001  0.0001  0.0004  0.0000 </r>
       </set>
       <set comment="band 3">
        <r>  0.2179  0.0012  0.0012  0.0083  0.0000  0.0001  0.0000  0.0000  0.0000 </r>
        <r>  0.2531  0.0016  0.0001  0.0002  0.0001  0.0001  0.0000  0.0004  0.0000 </r>
        <r>  0.2104  0.0057  0.0009  0.0054  0.0000  0.0000  0.0000  0.0001  0.0000 </r>
       </set>
       <set comment="band 4">
        <r>  0.0031  0.0219  0.0586  0.0513  0.0003  0.0000  0.0000  0.0004  0.0002 </r>
        <r>  0.0009  0.0313  0.0038  0.0839  0.0000  0.0001  0.0000  0.0001  0.0004 </r>
        <r>  0.0023  0.0124  0.0711  0.0506  0.0002  0.0002  0.0000  0.0001  0.0001 </r>
       </set>
       <set comment="band 5">
        <r>  0.0062  0.0589  0.0403  0.0219  0.0008  0.0005  0.0001  0.0001  0.0006 </r>
        <r>  0.0266  0.0930  0.0281  0.0248  0.0008  0.0003  0.0001  0.0004  0.0008 </r>
        <r>  0.0003  0.0403  0.0695  0.0287  0.0002  0.0006  0.0000  0.0003  0.0000 </r>
       </set>
       <set comment="band 6">
        <r>  0.0069  0.0317  0.0466  0.0665  0.0007  0.0005  0.0000  0.0005  0.0001 </r>
        <r>  0.0045  0.0138  0.1261  0.0229  0.0005  0.0016  0.0000  0.0003  0.0000 </r>
        <r>  0.0099  0.0928  0.0008  0.0308  0.0010  0.0003  0.0000  0.0003  0.0013 </r>
       </set>
       <set comment="band 7">
        <r>  0.0018  0.1879  0.0667  0.0008  0.0005  0.0011  0.0002  0.0005  0.0003 </r>
        <r>  0.0140  0.0572  0.0629  0.0158  0.0007  0.0021  0.0002  0.0002  0.0005 </r>
        <r>  0.0132  0.0342  0.0306  0.0007  0.0005  0.0060  0.0003  0.0000  0.0008 </r>
       </set>
       <set comment="band 8">
        <r>  0.0127  0.0089  0.0253  0.0257  0.0014  0.0014  0.0003  0.0048  0.0003 </r>
        <r>  0.0182  0.0632  0.0621  0.0116  0.0016  0.0012  0.0001  0.0008  0.0003 </r>
        <r>  0.0026  0.0475  0.0603  0.1533  0.0009  0.0001  0.0004  0.0020  0.0000 </r>
       </set>
       <set comment="band 9">
        <r>  0.0303  0.0161  0.0269  0.0676  0.0001  0.0017  0.0011  0.0029  0.0002 </r>
        <r>  0.0010  0.0508  0.0125  0.1911  0.0002  0.0002  0.0006  0.0009  0.0001 </r>
        <r>  0.0276  0.0354  0.0357  0.0486  0.0000  0.0009  0.0013  0.0041  0.0001 </r>
       </set>
       <set comment="band 10">
        <r>  0.0166  0.0106  0.0532  0.1482  0.0004  0.0010  0.0033  0.0023  0.0002 </r>
        <r>  0.0114  0.0187  0.0019  0.0428  0.0015  0.0013  0.0063  0.0039  0.0005 </r>
        <r>  0.0198  0.0981  0.0729  0.0236  0.0006  0.0011  0.0029  0.0016  0.0002 </r>
       </set>
       <set comment="band 11">
        <r>  0.0022  0.0954  0.0991  0.0307  0.0003  0.0004  0.0002  0.0064  0.0003 </r>
        <r>  0.0082  0.1047  0.0162  0.0419  0.0000  0.0013  0.0010  0.0098  0.0004 </r>
        <r>  0.0028  0.0256  0.0325  0.0835  0.0014  0.0011  0.0009  0.0047  0.0000 </r>
       </set>
       <set comment="band 12">
        <r>  0.0007  0.0306  0.0732  0.0413  0.0024  0.0035  0.0025  0.0005  0.0011 </r>
        <r>  0.0007  0.0275  0.1476  0.0017  0.0009  0.0109  0.0007  0.0012  0.0009 </r>
        <r>  0.0011  0.0835  0.1254  0.0209  0.0013  0.0033  0.0007  0.0007  0.0012 </r>
       </set>
       <set comment="band 13">
        <r>  0.0006  0.0008  0.0011  0.0001  0.0189  0.0049  0.0081  0.0107  0.0098 </r>
        <r>  0.0005  0.0050  0.0320  0.0269  0.0019  0.0044  0.0014  0.0052  0.0048 </r>
        <r>  0.0004  0.0072  0.0040  0.0130  0.0209  0.0115  0.0113  0.0053  0.0070 </r>
       </set>
       <set comment="band 14">
        <r>  0.0016  0.0291  0.0139  0.0006  0.0077  0.0038  0.0140  0.0059  0.0025 </r>
        <r>  0.0019  0.0115  0.0076  0.0014  0.0308  0.0060  0.0261  0.0109  0.0071 </r>
        <r>  0.0020  0.0060  0.0018  0.0108  0.0083  0.0030  0.0116  0.0101  0.0022 </r>
       </set>
       <set comment="band 15">
        <r>  0.0021  0.0005  0.0002  0.0242  0.0050  0.0064  0.0253  0.0071  0.0268 </r>
        <r>  0.0032  0.0021  0.0006  0.0087  0.0021  0.0036  0.0123  0.0088  0.0247 </r>
        <r>  0.0021  0.0010  0.0002  0.0245  0.0003  0.0101  0.0333  0.0037  0.0186 </r>
       </set>
       <set comment="band 16">
        <r>  0.0029  0.0165  0.0030  0.0114  0.0038  0.0399  0.0018  0.0046  0.0108 </r>
        <r>  0.0021  0.0130  0.0125  0.0254  0.0017  0.0209  0.0115  0.0006  0.0154 </r>
        <r>  0.0053  0.0112  0.0010  0.0078  0.0052  0.0145  0.0027  0.0091  0.0143 </r>
       </set>
       <set comment="band 17">
        <r>  0.0117  0.0039  0.0052  0.0037  0.0025  0.0430  0.0342  0.0114  0.0128 </r>
        <r>  0.0084  0.0192  0.0119  0.0034  0.0002  0.0342  0.0038  0.0003  0.0337 </r>
        <r>  0.0050  0.0223  0.0038  0.0036  0.0109  0.0280  0.0017  0.0033  0.0286 </r>
       </set>
       <set comment="band 18">
        <r>  0.0075  0.0111  0.0063  0.0034  0.0266  0.0240  0.0151  0.0022  0.0180 </r>
        <r>  0.0019  0.0146  0.0083  0.0141  0.0177  0.0240  0.0035  0.0437  0.0059 </r>
        <r>  0.0025  0.0093  0.0058  0.0101  0.0179  0.0179  0.0057  0.0407  0.0154 </r>
       </set>
       <set comment="band 19">
        <r>  0.0073  0.0104  0.0004  0.0126  0.0154  0.0016  0.0034  0.0107  0.0060 </r>
        <r>  0.0106  0.0125  0.0063  0.0103  0.0271  0.0048  0.0728  0.0075  0.0025 </r>
        <r>  0.0177  0.0224  0.0042  0.0135  0.0073  0.0130  0.0099  0.0065  0.0262 </r>
       </set>
       <set comment="band 20">
        <r>  0.0011  0.0162  0.0001  0.0045  0.0164  0.0018  0.0060  0.0052  0.0316 </r>
        <r>  0.0051  0.0142  0.0008  0.0090  0.0096  0.0084  0.0004  0.0044  0.0112 </r>
        <r>  0.0051  0.0042  0.0002  0.0036  0.0649  0.0064  0.0910  0.0087  0.0182 </r>
       </set>
       <set comment="band 21">
        <r>  0.0228  0.0036  0.0015  0.0195  0.0178  0.0039  0.0439  0.0171  0.0260 </r>
        <r>  0.0122  0.0071  0.0000  0.0086  0.0076  0.0003  0.0091  0.0129  0.0196 </r>
        <r>  0.0226  0.0003  0.0014  0.0022  0.0021  0.0078  0.0064  0.0102  0.0039 </r>
       </set>
       <set comment="band 22">
        <r>  0.0061  0.0050  0.0131  0.0302  0.0451  0.0217  0.0013  0.0083  0.0098 </r>
        <r>  0.0108  0.0024  0.0084  0.0178  0.0791  0.0356  0.0112  0.0062  0.0133 </r>
        <r>  0.0072  0.0004  0.0045  0.0057  0.0051  0.0030  0.0007  0.0405  0.0085 </r>
       </set>
       <set comment="band 23">
        <r>  0.0025  0.0054  0.0039  0.0142  0.0073  0.0029  0.0052  0.0044  0.0427 </r>
        <r>  0.0069  0.0041  0.0072  0.0093  0.0074  0.0043  0.0148  0.0287  0.0209 </r>
        <r>  0.0005  0.0048  0.0074  0.0362  0.0411  0.0162  0.0008  0.0112  0.0277 </r>
       </set>
       <set comment="band 24">
        <r>  0.0036  0.0083  0.0084  0.0125  0.0169  0.0068  0.0551  0.0543  0.0312 </r>
        <r>  0.0043  0.0053  0.0026  0.0166  0.0098  0.0097  0.0111  0.0469  0.0345 </r>
        <r>  0.0017  0.0026  0.0142  0.0044  0.0096  0.0078  0.0147  0.0288  0.0110 </r>
       </set>
       <set comment="band 25">
        <r>  0.0001  0.0010  0.0020  0.0002  0.0030  0.0134  0.0120  0.0428  0.0201 </r>
        <r>  0.0034  0.0032  0.0039  0.0111  0.0015  0.0000  0.0367  0.0015  0.0466 </r>
        <r>  0.0028  0.0001  0.0069  0.0161  0.0084  0.0015  0.0267  0.0016  0.0507 </r>
       </set>
       <set comment="band 26">
        <r>  0.0146  0.0027  0.0176  0.0146  0.0149  0.0293  0.0051  0.0240  0.0325 </r>
        <r>  0.0118  0.0011  0.0069  0.0249  0.0042  0.0300  0.0088  0.0553  0.0377 </r>
        <r>  0.0017  0.0060  0.0012  0.0306  0.0046  0.0073  0.0019  0.0488  0.0177 </r>
       </set>
       <set comment="band 27">
        <r>  0.0029  0.0012  0.0153  0.0092  0.0266  0.0359  0.0025  0.0479  0.0101 </r>
        <r>  0.0078  0.0002  0.0165  0.0022  0.0157  0.0394  0.0071  0.0240  0.0305 </r>
        <r>  0.0079  0.0013  0.0359  0.0048  0.0386  0.0561  0.0143  0.0191  0.0567 </r>
       </set>
       <set comment="band 28">
        <r>  0.0012  0.0071  0.0186  0.0044  0.0270  0.0001  0.0022  0.0437  0.0137 </r>
        <r>  0.0021  0.0096  0.0024  0.0005  0.0279  0.0017  0.0111  0.0032  0.0032 </r>
        <r>  0.0005  0.0019  0.0021  0.0031  0.0011  0.0190  0.0100  0.0044  0.0251 </r>
       </set>
       <set comment="band 29">
        <r>  0.0099  0.0162  0.0056  0.0065  0.0027  0.0031  0.0179  0.0185  0.0260 </r>
        <r>  0.0006  0.0174  0.0071  0.0063  0.0328  0.0145  0.0041  0.0002  0.0257 </r>
        <r>  0.0006  0.0289  0.0028  0.0037  0.0375  0.0407  0.0033  0.0329  0.0053 </r>
       </set>
       <set comment="band 30">
        <r>  0.0028  0.0255  0.0004  0.0016  0.0728  0.0289  0.0161  0.0011  0.0233 </r>
        <r>  0.0143  0.0221  0.0054  0.0027  0.0398  0.0438  0.0135  0.0098  0.0305 </r>
        <r>  0.0117  0.0250  0.0076  0.0030  0.0246  0.0282  0.0101  0.0165  0.0231 </r>
       </set>
       <set comment="band 31">
        <r>  0.0017  0.0001  0.0123  0.0087  0.0014  0.0775  0.0459  0.0251  0.0012 </r>
        <r>  0.0013  0.0049  0.0093  0.0034  0.0105  0.0521  0.0490  0.0461  0.0035 </r>
        <r>  0.0012  0.0023  0.0278  0.0017  0.0081  0.1999  0.0020  0.0350  0.0131 </r>
       </set>
       <set comment="band 32">
        <r>  0.0005  0.0133  0.0004  0.0011  0.0675  0.0479  0.0401  0.0336  0.0341 </r>
        <r>  0.0008  0.0090  0.0058  0.0038  0.0885  0.0428  0.0904  0.0224  0.0484 </r>
        <r>  0.0015  0.0017  0.0010  0.0004  0.0624  0.0135  0.1127  0.0231  0.0076 </r>
       </set>
      </set>
      <set comment="kpoint 64">
       <set comment="band 1">
        <r>  0.3292  0.0008  0.0019  0.0035  0.0001  0.0002  0.0000  0.0002  0.0001 </r>
        <r>  0.3292  0.0022  0.0019  0.0020  0.0001  0.0001  0.0000  0.0003  0.0000 </r>
        <r>  0.0000  0.0003  0.0045  0.0009  0.0001  0.0009  0.0000  0.0003  0.0002 </r>
       </set>
       <set comment="band 2">
        <r>  0.1000  0.0021  0.0044  0.0016  0.0001  0.0002  0.0000  0.0006  0.0001 </r>
        <r>  0.1000  0.0031  0.0044  0.0006  0.0000  0.0008  0.0000  0.0000  0.0002 </r>
        <r>  0.4568  0.0053  0.0000  0.0018  0.0000  0.0000  0.0001  0.0001  0.0000 </r>
       </set>
       <set comment="band 3">
        <r>  0.2388  0.0011  0.0003  0.0042  0.0000  0.0003  0.0000  0.0001  0.0001 </r>
        <r>  0.2388  0.0051  0.0003  0.0002  0.0001  0.0000  0.0000  0.0003  0.0000 </r>
        <r>  0.2153  0.0081  0.0000  0.0027  0.0001  0.0001  0.0000  0.0002  0.0000 </r>
       </set>
       <set comment="band 4">
        <r>  0.0030  0.0820  0.0124  0.0335  0.0007  0.0002  0.0001  0.0005  0.0003 </r>
        <r>  0.0030  0.0767  0.0124  0.0388  0.0000  0.0003  0.0001  0.0004  0.0010 </r>
        <r>  0.0000  0.0058  0.1256  0.0174  0.0001  0.0005  0.0000  0.0002  0.0004 </r>
       </set>
       <set comment="band 5">
        <r>  0.0099  0.0322  0.0589  0.0324  0.0003  0.0001  0.0000  0.0003  0.0005 </r>
        <r>  0.0099  0.0170  0.0589  0.0475  0.0002  0.0002  0.0000  0.0001  0.0005 </r>
        <r>  0.0078  0.0995  0.0000  0.0332  0.0002  0.0001  0.0000  0.0004  0.0001 </r>
       </set>
       <set comment="band 6">
        <r>  0.0049  0.0099  0.0735  0.0719  0.0001  0.0003  0.0000  0.0005  0.0004 </r>
        <r>  0.0049  0.0346  0.0735  0.0472  0.0004  0.0005  0.0000  0.0003  0.0001 </r>
        <r>  0.0000  0.0249  0.0095  0.0748  0.0005  0.0001  0.0000  0.0000  0.0015 </r>
       </set>
       <set comment="band 7">
        <r>  0.0004  0.0478  0.1221  0.0096  0.0008  0.0009  0.0001  0.0046  0.0000 </r>
        <r>  0.0004  0.0006  0.1221  0.0568  0.0001  0.0052  0.0001  0.0002  0.0007 </r>
        <r>  0.0000  0.0165  0.0706  0.0494  0.0003  0.0064  0.0000  0.0021  0.0009 </r>
       </set>
       <set comment="band 8">
        <r>  0.0255  0.1193  0.0023  0.0551  0.0000  0.0001  0.0011  0.0008  0.0002 </r>
        <r>  0.0255  0.1407  0.0023  0.0337  0.0002  0.0004  0.0011  0.0004  0.0000 </r>
        <r>  0.0335  0.0707  0.0000  0.0236  0.0002  0.0011  0.0025  0.0032  0.0001 </r>
       </set>
       <set comment="band 9">
        <r>  0.0166  0.0278  0.0084  0.0684  0.0005  0.0022  0.0004  0.0013  0.0022 </r>
        <r>  0.0166  0.0224  0.0084  0.0738  0.0018  0.0001  0.0004  0.0035  0.0008 </r>
        <r>  0.0000  0.0555  0.0891  0.1666  0.0001  0.0003  0.0000  0.0001  0.0003 </r>
       </set>
       <set comment="band 10">
        <r>  0.0174  0.0688  0.0162  0.1288  0.0002  0.0015  0.0022  0.0017  0.0001 </r>
        <r>  0.0174  0.0491  0.0162  0.1486  0.0002  0.0005  0.0022  0.0027  0.0001 </r>
        <r>  0.0350  0.0312  0.0000  0.0104  0.0015  0.0003  0.0016  0.0008  0.0005 </r>
       </set>
       <set comment="band 11">
        <r>  0.0011  0.0103  0.1520  0.0080  0.0021  0.0021  0.0030  0.0058  0.0008 </r>
        <r>  0.0011  0.0164  0.1520  0.0019  0.0013  0.0036  0.0030  0.0043  0.0015 </r>
        <r>  0.0043  0.1333  0.0000  0.0444  0.0012  0.0018  0.0013  0.0053  0.0004 </r>
       </set>
       <set comment="band 12">
        <r>  0.0044  0.0473  0.0312  0.0584  0.0001  0.0067  0.0003  0.0042  0.0003 </r>
        <r>  0.0044  0.0889  0.0312  0.0168  0.0002  0.0077  0.0003  0.0032  0.0002 </r>
        <r>  0.0000  0.0121  0.2018  0.0363  0.0003  0.0057  0.0000  0.0019  0.0009 </r>
       </set>
       <set comment="band 13">
        <r>  0.0013  0.0093  0.0029  0.0036  0.0127  0.0064  0.0010  0.0083  0.0118 </r>
        <r>  0.0013  0.0004  0.0029  0.0125  0.0015  0.0053  0.0010  0.0094  0.0230 </r>
        <r>  0.0000  0.0105  0.0021  0.0315  0.0074  0.0139  0.0000  0.0046  0.0223 </r>
       </set>
       <set comment="band 14">
        <r>  0.0028  0.0016  0.0045  0.0025  0.0037  0.0037  0.0299  0.0014  0.0186 </r>
        <r>  0.0028  0.0020  0.0045  0.0021  0.0209  0.0008  0.0299  0.0043  0.0014 </r>
        <r>  0.0037  0.0036  0.0000  0.0012  0.0074  0.0049  0.0437  0.0146  0.0025 </r>
       </set>
       <set comment="band 15">
        <r>  0.0012  0.0073  0.0211  0.0010  0.0186  0.0060  0.0160  0.0064  0.0037 </r>
        <r>  0.0012  0.0046  0.0211  0.0037  0.0010  0.0106  0.0160  0.0017  0.0213 </r>
        <r>  0.0019  0.0079  0.0000  0.0026  0.0177  0.0012  0.0169  0.0037  0.0059 </r>
       </set>
       <set comment="band 16">
        <r>  0.0010  0.0272  0.0015  0.0098  0.0031  0.0144  0.0123  0.0099  0.0230 </r>
        <r>  0.0010  0.0274  0.0015  0.0097  0.0156  0.0146  0.0123  0.0097  0.0105 </r>
        <r>  0.0000  0.0008  0.0027  0.0024  0.0065  0.0059  0.0000  0.0020  0.0195 </r>
       </set>
       <set comment="band 17">
        <r>  0.0027  0.0023  0.0058  0.0056  0.0164  0.0331  0.0246  0.0038  0.0055 </r>
        <r>  0.0027  0.0019  0.0058  0.0061  0.0012  0.0101  0.0246  0.0267  0.0207 </r>
        <r>  0.0071  0.0680  0.0000  0.0227  0.0113  0.0054  0.0108  0.0163  0.0038 </r>
       </set>
       <set comment="band 18">
        <r>  0.0112  0.0352  0.0008  0.0105  0.0044  0.0104  0.0245  0.0164  0.0081 </r>
        <r>  0.0112  0.0328  0.0008  0.0129  0.0075  0.0088  0.0245  0.0180  0.0050 </r>
        <r>  0.0000  0.0019  0.0039  0.0056  0.0107  0.0164  0.0000  0.0055  0.0322 </r>
       </set>
       <set comment="band 19">
        <r>  0.0028  0.0128  0.0042  0.0067  0.0059  0.0114  0.0033  0.0093  0.0102 </r>
        <r>  0.0028  0.0146  0.0042  0.0049  0.0156  0.0168  0.0033  0.0039  0.0004 </r>
        <r>  0.0142  0.0047  0.0000  0.0016  0.0809  0.0027  0.0920  0.0081  0.0270 </r>
       </set>
       <set comment="band 20">
        <r>  0.0084  0.0001  0.0057  0.0004  0.0707  0.0165  0.0197  0.0244  0.0261 </r>
        <r>  0.0084  0.0004  0.0057  0.0000  0.0740  0.0130  0.0197  0.0280  0.0228 </r>
        <r>  0.0000  0.0001  0.0265  0.0003  0.0029  0.0329  0.0000  0.0110  0.0087 </r>
       </set>
       <set comment="band 21">
        <r>  0.0011  0.0169  0.0223  0.0034  0.0287  0.0199  0.0105  0.0124  0.0175 </r>
        <r>  0.0011  0.0117  0.0223  0.0086  0.0346  0.0278  0.0105  0.0045  0.0117 </r>
        <r>  0.0046  0.0028  0.0000  0.0009  0.0086  0.0295  0.0030  0.0884  0.0029 </r>
       </set>
       <set comment="band 22">
        <r>  0.0036  0.0096  0.0114  0.0618  0.0070  0.0053  0.0040  0.0146  0.0166 </r>
        <r>  0.0036  0.0324  0.0114  0.0391  0.0116  0.0048  0.0040  0.0151  0.0120 </r>
        <r>  0.0417  0.0003  0.0000  0.0001  0.0200  0.0122  0.0082  0.0366  0.0067 </r>
       </set>
       <set comment="band 23">
        <r>  0.0371  0.0053  0.0014  0.0012  0.0006  0.0290  0.0067  0.0880  0.0031 </r>
        <r>  0.0371  0.0029  0.0014  0.0037  0.0026  0.0315  0.0067  0.0855  0.0011 </r>
        <r>  0.0000  0.0112  0.0185  0.0337  0.0022  0.0012  0.0000  0.0004  0.0067 </r>
       </set>
       <set comment="band 24">
        <r>  0.0061  0.0041  0.0079  0.0032  0.0424  0.0152  0.0188  0.0064  0.0166 </r>
        <r>  0.0061  0.0035  0.0079  0.0038  0.0284  0.0056  0.0188  0.0161  0.0307 </r>
        <r>  0.0000  0.0090  0.0111  0.0270  0.0010  0.0237  0.0000  0.0079  0.0029 </r>
       </set>
       <set comment="band 25">
        <r>  0.0004  0.0179  0.0080  0.0110  0.0069  0.0007  0.0095  0.0133  0.0103 </r>
        <r>  0.0004  0.0148  0.0081  0.0141  0.0164  0.0113  0.0095  0.0029  0.0007 </r>
        <r>  0.0004  0.0204  0.0000  0.0068  0.0760  0.0048  0.0051  0.0146  0.0254 </r>
       </set>
       <set comment="band 26">
        <r>  0.0026  0.0003  0.0005  0.0048  0.0099  0.0134  0.0089  0.0176  0.0114 </r>
        <r>  0.0027  0.0032  0.0004  0.0021  0.0118  0.0278  0.0089  0.0032  0.0091 </r>
        <r>  0.0000  0.0015  0.0031  0.0048  0.0209  0.0160  0.0000  0.0054  0.0628 </r>
       </set>
       <set comment="band 27">
        <r>  0.0008  0.0031  0.0226  0.0143  0.0210  0.0546  0.0051  0.0254  0.0685 </r>
        <r>  0.0008  0.0064  0.0227  0.0108  0.0301  0.0653  0.0050  0.0154  0.0581 </r>
        <r>  0.0000  0.0007  0.0321  0.0020  0.0052  0.0774  0.0000  0.0257  0.0148 </r>
       </set>
       <set comment="band 28">
        <r>  0.0038  0.0030  0.0017  0.0113  0.0169  0.0224  0.0669  0.0073  0.0278 </r>
        <r>  0.0031  0.0060  0.0017  0.0096  0.0278  0.0203  0.0631  0.0109  0.0239 </r>
        <r>  0.0000  0.0041  0.0053  0.0111  0.0182  0.0227  0.0000  0.0077  0.0500 </r>
       </set>
       <set comment="band 29">
        <r>  0.0041  0.0084  0.0006  0.0090  0.0664  0.0179  0.0512  0.0018  0.0519 </r>
        <r>  0.0044  0.0142  0.0006  0.0028  0.0199  0.0065  0.0572  0.0122  0.0975 </r>
        <r>  0.0023  0.0119  0.0000  0.0036  0.0152  0.0040  0.0864  0.0123  0.0043 </r>
       </set>
       <set comment="band 30">
        <r>  0.0100  0.0362  0.0019  0.0007  0.0218  0.0023  0.0093  0.0419  0.0630 </r>
        <r>  0.0097  0.0102  0.0014  0.0286  0.0789  0.0329  0.0098  0.0056  0.0075 </r>
        <r>  0.0154  0.0193  0.0001  0.0061  0.0554  0.0112  0.0175  0.0219  0.0184 </r>
       </set>
       <set comment="band 31">
        <r>  0.0013  0.0048  0.0002  0.0003  0.0476  0.0161  0.0506  0.0034  0.0019 </r>
        <r>  0.0011  0.0034  0.0001  0.0046  0.0134  0.0131  0.0454  0.0061  0.0264 </r>
        <r>  0.0001  0.0065  0.0069  0.0259  0.0319  0.0141  0.0014  0.0046  0.0593 </r>
       </set>
       <set comment="band 32">
        <r>  0.0050  0.0081  0.0031  0.0081  0.0142  0.0454  0.0052  0.0034  0.0018 </r>
        <r>  0.0064  0.0004  0.0055  0.0026  0.0240  0.0064  0.0009  0.0089  0.0476 </r>
        <r>  0.0048  0.0125  0.0086  0.0064  0.0258  0.0632  0.0732  0.0221  0.0324 </r>
       </set>
      </set>
      <set comment="kpoint 65">
       <set comment="band 1">
        <r>  0.1206  0.0015  0.0034  0.0014  0.0002  0.0000  0.0000  0.0009  0.0000 </r>
        <r>  0.4259  0.0039  0.0000  0.0013  0.0001  0.0001  0.0001  0.0003  0.0000 </r>
        <r>  0.1207  0.0024  0.0034  0.0005  0.0000  0.0008  0.0000  0.0001  0.0002 </r>
       </set>
       <set comment="band 2">
        <r>  0.3336  0.0007  0.0009  0.0053  0.0000  0.0003  0.0001  0.0003  0.0001 </r>
        <r>  0.0000  0.0009  0.0059  0.0028  0.0000  0.0007  0.0000  0.0002  0.0001 </r>
        <r>  0.3335  0.0026  0.0009  0.0034  0.0001  0.0001  0.0001  0.0005  0.0000 </r>
       </set>
       <set comment="band 3">
        <r>  0.2186  0.0002  0.0002  0.0075  0.0000  0.0003  0.0000  0.0000  0.0001 </r>
        <r>  0.2444  0.0027  0.0000  0.0009  0.0001  0.0001  0.0000  0.0003  0.0000 </r>
        <r>  0.2186  0.0046  0.0002  0.0031  0.0001  0.0001  0.0000  0.0002  0.0000 </r>
       </set>
       <set comment="band 4">
        <r>  0.0020  0.0253  0.0691  0.0426  0.0003  0.0001  0.0000  0.0003  0.0002 </r>
        <r>  0.0000  0.0291  0.0031  0.0873  0.0002  0.0001  0.0000  0.0000  0.0006 </r>
        <r>  0.0020  0.0107  0.0691  0.0572  0.0003  0.0003  0.0000  0.0001  0.0002 </r>
       </set>
       <set comment="band 5">
        <r>  0.0002  0.0331  0.0600  0.0334  0.0003  0.0003  0.0000  0.0001  0.0001 </r>
        <r>  0.0134  0.1015  0.0000  0.0338  0.0008  0.0001  0.0000  0.0002  0.0003 </r>
        <r>  0.0002  0.0245  0.0600  0.0420  0.0003  0.0002  0.0000  0.0002  0.0001 </r>
       </set>
       <set comment="band 6">
        <r>  0.0055  0.0677  0.0070  0.0546  0.0010  0.0001  0.0000  0.0002  0.0002 </r>
        <r>  0.0000  0.0026  0.1372  0.0078  0.0000  0.0007  0.0000  0.0002  0.0001 </r>
        <r>  0.0055  0.0984  0.0070  0.0238  0.0005  0.0001  0.0000  0.0002  0.0008 </r>
       </set>
       <set comment="band 7">
        <r>  0.0010  0.0748  0.0971  0.0019  0.0013  0.0002  0.0000  0.0074  0.0000 </r>
        <r>  0.0000  0.0048  0.1403  0.0143  0.0002  0.0050  0.0000  0.0017  0.0007 </r>
        <r>  0.0010  0.0279  0.0971  0.0487  0.0005  0.0053  0.0000  0.0023  0.0009 </r>
       </set>
       <set comment="band 8">
        <r>  0.0091  0.1132  0.0335  0.0274  0.0003  0.0022  0.0009  0.0010  0.0006 </r>
        <r>  0.0389  0.1018  0.0000  0.0339  0.0015  0.0003  0.0007  0.0010  0.0005 </r>
        <r>  0.0091  0.0482  0.0335  0.0924  0.0006  0.0026  0.0009  0.0007  0.0004 </r>
       </set>
       <set comment="band 9">
        <r>  0.0299  0.0469  0.0087  0.0657  0.0000  0.0023  0.0012  0.0011  0.0004 </r>
        <r>  0.0000  0.0657  0.0097  0.1970  0.0000  0.0003  0.0000  0.0001  0.0001 </r>
        <r>  0.0299  0.0308  0.0087  0.0819  0.0003  0.0003  0.0012  0.0032  0.0001 </r>
       </set>
       <set comment="band 10">
        <r>  0.0291  0.0246  0.0210  0.1392  0.0002  0.0002  0.0031  0.0004  0.0003 </r>
        <r>  0.0214  0.0602  0.0000  0.0201  0.0012  0.0011  0.0052  0.0032  0.0004 </r>
        <r>  0.0291  0.1518  0.0210  0.0120  0.0004  0.0001  0.0031  0.0005  0.0000 </r>
       </set>
       <set comment="band 11">
        <r>  0.0026  0.0636  0.1161  0.0123  0.0007  0.0021  0.0000  0.0072  0.0003 </r>
        <r>  0.0101  0.0845  0.0000  0.0282  0.0005  0.0026  0.0005  0.0078  0.0002 </r>
        <r>  0.0026  0.0101  0.1161  0.0658  0.0004  0.0032  0.0000  0.0061  0.0005 </r>
       </set>
       <set comment="band 12">
        <r>  0.0023  0.0014  0.0755  0.0715  0.0007  0.0069  0.0003  0.0020  0.0019 </r>
        <r>  0.0000  0.0061  0.1886  0.0182  0.0005  0.0096  0.0000  0.0032  0.0015 </r>
        <r>  0.0023  0.0575  0.0755  0.0155  0.0015  0.0061  0.0003  0.0028  0.0011 </r>
       </set>
       <set comment="band 13">
        <r>  0.0002  0.0253  0.0025  0.0019  0.0267  0.0027  0.0053  0.0156  0.0075 </r>
        <r>  0.0000  0.0054  0.0094  0.0161  0.0017  0.0085  0.0000  0.0028  0.0052 </r>
        <r>  0.0002  0.0104  0.0025  0.0168  0.0246  0.0126  0.0053  0.0057  0.0096 </r>
       </set>
       <set comment="band 14">
        <r>  0.0029  0.0135  0.0054  0.0009  0.0076  0.0081  0.0105  0.0011  0.0029 </r>
        <r>  0.0024  0.0124  0.0000  0.0041  0.0395  0.0051  0.0189  0.0154  0.0132 </r>
        <r>  0.0029  0.0017  0.0054  0.0127  0.0073  0.0003  0.0105  0.0090  0.0033 </r>
       </set>
       <set comment="band 15">
        <r>  0.0005  0.0055  0.0016  0.0165  0.0062  0.0154  0.0041  0.0054  0.0350 </r>
        <r>  0.0000  0.0089  0.0105  0.0267  0.0024  0.0044  0.0000  0.0015  0.0072 </r>
        <r>  0.0005  0.0056  0.0016  0.0164  0.0155  0.0088  0.0041  0.0120  0.0257 </r>
       </set>
       <set comment="band 16">
        <r>  0.0023  0.0084  0.0006  0.0181  0.0068  0.0080  0.0262  0.0009  0.0154 </r>
        <r>  0.0058  0.0030  0.0000  0.0010  0.0041  0.0044  0.0471  0.0132  0.0014 </r>
        <r>  0.0023  0.0118  0.0006  0.0147  0.0098  0.0040  0.0262  0.0049  0.0125 </r>
       </set>
       <set comment="band 17">
        <r>  0.0020  0.0005  0.0005  0.0028  0.0040  0.0047  0.0385  0.0030  0.0071 </r>
        <r>  0.0000  0.0047  0.0037  0.0142  0.0163  0.0088  0.0000  0.0029  0.0490 </r>
        <r>  0.0020  0.0031  0.0005  0.0002  0.0034  0.0046  0.0385  0.0031  0.0077 </r>
       </set>
       <set comment="band 18">
        <r>  0.0005  0.0037  0.0008  0.0009  0.0275  0.0011  0.0312  0.0061  0.0074 </r>
        <r>  0.0022  0.0024  0.0000  0.0008  0.0109  0.0005  0.0514  0.0015  0.0036 </r>
        <r>  0.0005  0.0024  0.0008  0.0022  0.0160  0.0049  0.0312  0.0024  0.0189 </r>
       </set>
       <set comment="band 19">
        <r>  0.0001  0.0001  0.0218  0.0070  0.0117  0.0852  0.0006  0.0130  0.0263 </r>
        <r>  0.0000  0.0029  0.0402  0.0086  0.0050  0.0699  0.0000  0.0233  0.0149 </r>
        <r>  0.0001  0.0052  0.0218  0.0019  0.0085  0.0598  0.0006  0.0384  0.0295 </r>
       </set>
       <set comment="band 20">
        <r>  0.0320  0.0062  0.0001  0.0533  0.0027  0.0138  0.0166  0.0050  0.0068 </r>
        <r>  0.0058  0.0556  0.0000  0.0185  0.0156  0.0065  0.0205  0.0196  0.0052 </r>
        <r>  0.0320  0.0572  0.0001  0.0023  0.0089  0.0005  0.0166  0.0184  0.0006 </r>
       </set>
       <set comment="band 21">
        <r>  0.0032  0.0306  0.0380  0.0225  0.0001  0.0129  0.0032  0.0141  0.0167 </r>
        <r>  0.0266  0.0049  0.0000  0.0016  0.0179  0.0289  0.0031  0.0867  0.0060 </r>
        <r>  0.0032  0.0030  0.0380  0.0500  0.0129  0.0043  0.0032  0.0227  0.0039 </r>
       </set>
       <set comment="band 22">
        <r>  0.0046  0.0093  0.0015  0.0174  0.0041  0.0009  0.0286  0.0429  0.0527 </r>
        <r>  0.0000  0.0126  0.0103  0.0377  0.0168  0.0113  0.0000  0.0038  0.0504 </r>
        <r>  0.0046  0.0132  0.0015  0.0134  0.0423  0.0303  0.0286  0.0135  0.0145 </r>
       </set>
       <set comment="band 23">
        <r>  0.0026  0.0130  0.0041  0.0023  0.0629  0.0535  0.0026  0.0801  0.0013 </r>
        <r>  0.0000  0.0056  0.0377  0.0168  0.0055  0.0286  0.0000  0.0095  0.0164 </r>
        <r>  0.0026  0.0028  0.0041  0.0125  0.0124  0.0256  0.0026  0.1079  0.0519 </r>
       </set>
       <set comment="band 24">
        <r>  0.0055  0.0259  0.0207  0.0057  0.0094  0.0462  0.0186  0.0351  0.0058 </r>
        <r>  0.0130  0.0204  0.0000  0.0068  0.0348  0.0136  0.0087  0.0408  0.0116 </r>
        <r>  0.0055  0.0047  0.0207  0.0269  0.0128  0.0724  0.0186  0.0089  0.0023 </r>
       </set>
       <set comment="band 25">
        <r>  0.0179  0.0160  0.0051  0.0169  0.0122  0.0001  0.0015  0.0016  0.0514 </r>
        <r>  0.0000  0.0132  0.0036  0.0397  0.0023  0.0735  0.0000  0.0245  0.0068 </r>
        <r>  0.0179  0.0247  0.0051  0.0082  0.0226  0.0016  0.0015  0.0001  0.0410 </r>
       </set>
       <set comment="band 26">
        <r>  0.0038  0.0076  0.0067  0.0101  0.0250  0.0029  0.0041  0.0196  0.0693 </r>
        <r>  0.0437  0.0082  0.0000  0.0027  0.0416  0.0025  0.0663  0.0074  0.0139 </r>
        <r>  0.0038  0.0033  0.0067  0.0144  0.0471  0.0204  0.0041  0.0021  0.0472 </r>
       </set>
       <set comment="band 27">
        <r>  0.0185  0.0131  0.0004  0.0021  0.0137  0.0018  0.0117  0.0182  0.0067 </r>
        <r>  0.0000  0.0030  0.0042  0.0090  0.0482  0.0027  0.0000  0.0009  0.1446 </r>
        <r>  0.0186  0.0065  0.0004  0.0087  0.0131  0.0179  0.0117  0.0020  0.0072 </r>
       </set>
       <set comment="band 28">
        <r>  0.0013  0.0033  0.0008  0.0025  0.0611  0.0008  0.0196  0.0122  0.0079 </r>
        <r>  0.0022  0.0013  0.0000  0.0004  0.0039  0.0014  0.0311  0.0041  0.0013 </r>
        <r>  0.0013  0.0024  0.0008  0.0034  0.0072  0.0071  0.0196  0.0060  0.0618 </r>
       </set>
       <set comment="band 29">
        <r>  0.0035  0.0047  0.0006  0.0026  0.0121  0.0109  0.0433  0.0004  0.0772 </r>
        <r>  0.0033  0.0179  0.0000  0.0060  0.1362  0.0071  0.0206  0.0213  0.0454 </r>
        <r>  0.0034  0.0061  0.0006  0.0012  0.0782  0.0014  0.0433  0.0099  0.0112 </r>
       </set>
       <set comment="band 30">
        <r>  0.0020  0.0096  0.0013  0.0043  0.0688  0.0064  0.0389  0.0165  0.0224 </r>
        <r>  0.0000  0.0011  0.0021  0.0034  0.0175  0.0068  0.0000  0.0023  0.0520 </r>
        <r>  0.0019  0.0113  0.0013  0.0026  0.0612  0.0055  0.0383  0.0171  0.0306 </r>
       </set>
       <set comment="band 31">
        <r>  0.0013  0.0013  0.0027  0.0014  0.0768  0.0033  0.0256  0.0307  0.0086 </r>
        <r>  0.0034  0.0016  0.0000  0.0005  0.0222  0.0003  0.1274  0.0008  0.0074 </r>
        <r>  0.0012  0.0005  0.0026  0.0021  0.0046  0.0241  0.0242  0.0108  0.0810 </r>
       </set>
       <set comment="band 32">
        <r>  0.0016  0.0093  0.0007  0.0011  0.0413  0.0006  0.0871  0.0050  0.0148 </r>
        <r>  0.0000  0.0005  0.0015  0.0022  0.0015  0.0104  0.0002  0.0034  0.0079 </r>
        <r>  0.0014  0.0058  0.0009  0.0044  0.0340  0.0017  0.0838  0.0040  0.0153 </r>
       </set>
      </set>
     </set>
    </set>
   </array>
  </projected>
 </calculation>
 <structure name="finalpos" >
  <crystal>
   <varray name="basis" >
    <v>       4.51385883       0.00000000      -0.00000000 </v>
    <v>      -2.25692941       3.90911690       0.00000000 </v>
    <v>      -0.00000000       0.00000000       5.95701017 </v>
   </varray>
   <i name="volume">    105.11264677 </i>
   <varray name="rec_basis" >
    <v>       0.22153994       0.12790613       0.00000000 </v>
    <v>      -0.00000000       0.25581225      -0.00000000 </v>
    <v>       0.00000000       0.00000000       0.16786945 </v>
   </varray>
  </crystal>
  <varray name="positions" >
   <v>       0.26899090       0.00000000       0.33333300 </v>
   <v>       0.00000000       0.26899090       0.66666700 </v>
   <v>       0.73100910       0.73100910       0.00000000 </v>
  </varray>
  <varray name="velocities" >
   <v>       0.00000000       0.00000000       0.00000000 </v>
   <v>       0.00000000       0.00000000       0.00000000 </v>
   <v>       0.00000000       0.00000000       0.00000000 </v>
  </varray>
 </structure>
</modeling>
