 vasp.6.3.0 20Jan22 (build Aug  4 2024 13:09:20) complex                         
 executed on             LinuxGNU date 2026.04.20  10:06:36
 running   32 mpi-ranks, with    1 threads/rank
 distrk:  each k-point on   32 cores,    1 groups
 distr:  one band on NCORE=   1 cores,   32 groups


--------------------------------------------------------------------------------------------------------


 INCAR:
   SYSTEM = Te
   ICHARG = 11
   LWAVE = .TRUE.
   LCHARG = .TRUE.
   LVTOT = .FALSE.
   LVHAR = .FALSE.
   LELF = .FALSE.
   LORBIT = 11
   NEDOS = 1000
   ENCUT = 400
   ISMEAR = 0
   SIGMA = 0.05
   EDIFF = 1E-6
   NELMIN = 5
   NELM = 300
   GGA = PE
   LREAL = .FALSE.
   PREC = Accurate

 POTCAR:   PAW_PBE Te 08Apr2002                   
 POTCAR:   PAW_PBE Te 08Apr2002                   
   VRHFIN =Te: s2p4                                                                                 
   LEXCH  = PE                                                                                      
   EATOM  =   223.2721 eV,   16.4100 Ry                                                             
                                                                                                    
   TITEL  = PAW_PBE Te 08Apr2002                                                                    
   LULTRA =        F    use ultrasoft PP ?                                                          
   IUNSCR =        1    unscreen: 0-lin 1-nonlin 2-no                                               
   RPACOR =    2.200    partial core radius                                                         
   POMASS =  127.600; ZVAL   =    6.000    mass and valenz                                          
   RCORE  =    2.300    outmost cutoff radius                                                       
   RWIGS  =    2.900; RWIGS  =    1.535    wigner-seitz radius (au A)                               
   ENMAX  =  174.982; ENMIN  =  131.236 eV                                                          
   ICORE  =        3    local potential                                                             
   LCOR   =        T    correct aug charges                                                         
   LPAW   =        T    paw PP                                                                      
   EAUG   =  368.792                                                                                
   DEXC   =    -.169                                                                                
   RMAX   =    3.486    core radius for proj-oper                                                   
   RAUG   =    1.300    factor for augmentation sphere                                              
   RDEP   =    2.397    radius for radial grids                                                     
   QCUT   =   -3.586; QGAM   =    7.172    optimization parameters                                  
                                                                                                    
   Description                                                                                      
     l     E      TYP  RCUT    TYP  RCUT                                                            
     0   .000     23  2.300                                                                         
     0   .000     23  2.300                                                                         
     1   .000     23  2.300                                                                         
     1   .000     23  2.300                                                                         
     2   .000     23  2.300                                                                         
     3  -.100     23  2.300                                                                         
  local pseudopotential read in
  partial core-charges read in
  atomic valenz-charges read in
  non local Contribution for L=           0  read in
    real space projection operators read in
  non local Contribution for L=           0  read in
    real space projection operators read in
  non local Contribution for L=           1  read in
    real space projection operators read in
  non local Contribution for L=           1  read in
    real space projection operators read in
  non local Contribution for L=           2  read in
    real space projection operators read in
    PAW grid and wavefunctions read in

   number of l-projection  operators is LMAX  =           5
   number of lm-projection operators is LMMAX =          13

 PAW_PBE Te 08Apr2002                   :
 energy of atom  1       EATOM= -223.2721
 kinetic energy error for atom=    0.0011 (will be added to EATOM!!)


 POSCAR: Generated by VASPKIT code
  positions in direct lattice
  No initial velocities read in
 exchange correlation table for  LEXCH =        8
   RHO(1)=    0.500       N(1)  =     2000
   RHO(2)=  100.500       N(2)  =     4000



--------------------------------------------------------------------------------------------------------


 ion  position               nearest neighbor table
   1  0.269  0.000  0.333-   2 2.89   3 2.89   2 3.51   2 3.51   3 3.51   3 3.51
   2  0.000  0.269  0.667-   1 2.89   3 2.89   1 3.51   1 3.51   3 3.51   3 3.51
   3  0.731  0.731  0.000-   2 2.89   1 2.89   1 3.51   2 3.51   1 3.51   2 3.51

  LATTYP: Found a hexagonal cell.
 ALAT       =     4.5138088219
 C/A-ratio  =     1.3204992306
  
  Lattice vectors:
  
 A1 = (   4.5138088219,   0.0000000000,   0.0000000000)
 A2 = (  -2.2569044109,   3.9090731076,   0.0000000000)
 A3 = (   0.0000000000,   0.0000000000,   5.9604810764)


Analysis of symmetry for initial positions (statically):
=====================================================================
 Subroutine PRICEL returns:
 Original cell was already a primitive cell.
 

 Routine SETGRP: Setting up the symmetry group for a 
 hexagonal supercell.


 Subroutine GETGRP returns: Found  6 space group operations
 (whereof  2 operations were pure point group operations)
 out of a pool of 24 trial point group operations.


The static configuration has the point symmetry C_2 .
 The point group associated with its full space group is D_3 .


Analysis of symmetry for dynamics (positions and initial velocities):
=====================================================================
 Subroutine PRICEL returns:
 Original cell was already a primitive cell.
 

 Routine SETGRP: Setting up the symmetry group for a 
 hexagonal supercell.


 Subroutine GETGRP returns: Found  6 space group operations
 (whereof  2 operations were pure point group operations)
 out of a pool of 24 trial point group operations.


The dynamic configuration has the point symmetry C_2 .
 The point group associated with its full space group is D_3 .


 Subroutine INISYM returns: Found  6 space group operations
 (whereof  2 operations are pure point group operations),
 and found     1 'primitive' translations


----------------------------------------------------------------------------------------

                                     Primitive cell                                     

  volume of cell :     105.1715

  direct lattice vectors                    reciprocal lattice vectors
     4.513808822  0.000000000  0.000000000     0.221542391  0.127907559 -0.000000000
    -2.256904411  3.909073108  0.000000000     0.000000000  0.255815118  0.000000000
     0.000000000  0.000000000  5.960481076     0.000000000 -0.000000000  0.167771693

  length of vectors
     4.513808822  4.513808822  5.960481076     0.255815118  0.255815118  0.167771693

  position of ions in fractional coordinates (direct lattice)
     0.268843482  0.000000000  0.333333333
     0.000000000  0.268843482  0.666666667
     0.731156518  0.731156518  0.000000000

  ion indices of the primitive-cell ions
   primitive index   ion index
                 1           1
                 2           2
                 3           3

----------------------------------------------------------------------------------------



 KPOINTS: K-Path Generated by VASPKIT.            

Interpolating k-points between supplied coordinates.

 Line segments in fractional coordinates (reciprocal lattice):
    0.000000  0.000000  0.000000  ...  0.500000  0.000000  0.000000
    0.500000  0.000000  0.000000  ...  0.333333  0.333333  0.000000
    0.333333  0.333333  0.000000  ...  0.000000  0.000000  0.000000
    0.000000  0.000000  0.000000  ...  0.000000  0.000000  0.500000
    0.000000  0.000000  0.500000  ...  0.500000  0.000000  0.500000
    0.500000  0.000000  0.500000  ...  0.333333  0.333333  0.500000
    0.333333  0.333333  0.500000  ...  0.000000  0.000000  0.500000
    0.500000  0.000000  0.500000  ...  0.500000  0.000000  0.000000
    0.333333  0.333333  0.500000  ...  0.333333  0.333333  0.000000

 Generated    20 points on each line segment, for a total of    180 k-points:

 Following reciprocal coordinates:
            Coordinates               Weight
  0.000000  0.000000  0.000000      0.005556
  0.026316  0.000000  0.000000      0.005556
  0.052632  0.000000  0.000000      0.005556
  0.078947  0.000000  0.000000      0.005556
  0.105263  0.000000  0.000000      0.005556
  0.131579  0.000000  0.000000      0.005556
  0.157895  0.000000  0.000000      0.005556
  0.184211  0.000000  0.000000      0.005556
  0.210526  0.000000  0.000000      0.005556
  0.236842  0.000000  0.000000      0.005556
  0.263158  0.000000  0.000000      0.005556
  0.289474  0.000000  0.000000      0.005556
  0.315789  0.000000  0.000000      0.005556
  0.342105  0.000000  0.000000      0.005556
  0.368421  0.000000  0.000000      0.005556
  0.394737  0.000000  0.000000      0.005556
  0.421053  0.000000  0.000000      0.005556
  0.447368  0.000000  0.000000      0.005556
  0.473684  0.000000  0.000000      0.005556
  0.500000  0.000000  0.000000      0.005556
  0.500000  0.000000  0.000000      0.005556
  0.491228  0.017544  0.000000      0.005556
  0.482456  0.035088  0.000000      0.005556
  0.473684  0.052632  0.000000      0.005556
  0.464912  0.070175  0.000000      0.005556
  0.456140  0.087719  0.000000      0.005556
  0.447368  0.105263  0.000000      0.005556
  0.438596  0.122807  0.000000      0.005556
  0.429825  0.140351  0.000000      0.005556
  0.421053  0.157895  0.000000      0.005556
  0.412281  0.175439  0.000000      0.005556
  0.403509  0.192982  0.000000      0.005556
  0.394737  0.210526  0.000000      0.005556
  0.385965  0.228070  0.000000      0.005556
  0.377193  0.245614  0.000000      0.005556
  0.368421  0.263158  0.000000      0.005556
  0.359649  0.280702  0.000000      0.005556
  0.350877  0.298246  0.000000      0.005556
  0.342105  0.315789  0.000000      0.005556
  0.333333  0.333333  0.000000      0.005556
  0.333333  0.333333  0.000000      0.005556
  0.315789  0.315789  0.000000      0.005556
  0.298246  0.298246  0.000000      0.005556
  0.280702  0.280702  0.000000      0.005556
  0.263158  0.263158  0.000000      0.005556
  0.245614  0.245614  0.000000      0.005556
  0.228070  0.228070  0.000000      0.005556
  0.210526  0.210526  0.000000      0.005556
  0.192982  0.192982  0.000000      0.005556
  0.175439  0.175439  0.000000      0.005556
  0.157895  0.157895  0.000000      0.005556
  0.140351  0.140351  0.000000      0.005556
  0.122807  0.122807  0.000000      0.005556
  0.105263  0.105263  0.000000      0.005556
  0.087719  0.087719  0.000000      0.005556
  0.070175  0.070175  0.000000      0.005556
  0.052632  0.052632  0.000000      0.005556
  0.035088  0.035088  0.000000      0.005556
  0.017544  0.017544  0.000000      0.005556
 -0.000000 -0.000000  0.000000      0.005556
  0.000000  0.000000  0.000000      0.005556
  0.000000  0.000000  0.026316      0.005556
  0.000000  0.000000  0.052632      0.005556
  0.000000  0.000000  0.078947      0.005556
  0.000000  0.000000  0.105263      0.005556
  0.000000  0.000000  0.131579      0.005556
  0.000000  0.000000  0.157895      0.005556
  0.000000  0.000000  0.184211      0.005556
  0.000000  0.000000  0.210526      0.005556
  0.000000  0.000000  0.236842      0.005556
  0.000000  0.000000  0.263158      0.005556
  0.000000  0.000000  0.289474      0.005556
  0.000000  0.000000  0.315789      0.005556
  0.000000  0.000000  0.342105      0.005556
  0.000000  0.000000  0.368421      0.005556
  0.000000  0.000000  0.394737      0.005556
  0.000000  0.000000  0.421053      0.005556
  0.000000  0.000000  0.447368      0.005556
  0.000000  0.000000  0.473684      0.005556
  0.000000  0.000000  0.500000      0.005556
  0.000000  0.000000  0.500000      0.005556
  0.026316  0.000000  0.500000      0.005556
  0.052632  0.000000  0.500000      0.005556
  0.078947  0.000000  0.500000      0.005556
  0.105263  0.000000  0.500000      0.005556
  0.131579  0.000000  0.500000      0.005556
  0.157895  0.000000  0.500000      0.005556
  0.184211  0.000000  0.500000      0.005556
  0.210526  0.000000  0.500000      0.005556
  0.236842  0.000000  0.500000      0.005556
  0.263158  0.000000  0.500000      0.005556
  0.289474  0.000000  0.500000      0.005556
  0.315789  0.000000  0.500000      0.005556
  0.342105  0.000000  0.500000      0.005556
  0.368421  0.000000  0.500000      0.005556
  0.394737  0.000000  0.500000      0.005556
  0.421053  0.000000  0.500000      0.005556
  0.447368  0.000000  0.500000      0.005556
  0.473684  0.000000  0.500000      0.005556
  0.500000  0.000000  0.500000      0.005556
  0.500000  0.000000  0.500000      0.005556
  0.491228  0.017544  0.500000      0.005556
  0.482456  0.035088  0.500000      0.005556
  0.473684  0.052632  0.500000      0.005556
  0.464912  0.070175  0.500000      0.005556
  0.456140  0.087719  0.500000      0.005556
  0.447368  0.105263  0.500000      0.005556
  0.438596  0.122807  0.500000      0.005556
  0.429825  0.140351  0.500000      0.005556
  0.421053  0.157895  0.500000      0.005556
  0.412281  0.175439  0.500000      0.005556
  0.403509  0.192982  0.500000      0.005556
  0.394737  0.210526  0.500000      0.005556
  0.385965  0.228070  0.500000      0.005556
  0.377193  0.245614  0.500000      0.005556
  0.368421  0.263158  0.500000      0.005556
  0.359649  0.280702  0.500000      0.005556
  0.350877  0.298246  0.500000      0.005556
  0.342105  0.315789  0.500000      0.005556
  0.333333  0.333333  0.500000      0.005556
  0.333333  0.333333  0.500000      0.005556
  0.315789  0.315789  0.500000      0.005556
  0.298246  0.298246  0.500000      0.005556
  0.280702  0.280702  0.500000      0.005556
  0.263158  0.263158  0.500000      0.005556
  0.245614  0.245614  0.500000      0.005556
  0.228070  0.228070  0.500000      0.005556
  0.210526  0.210526  0.500000      0.005556
  0.192982  0.192982  0.500000      0.005556
  0.175439  0.175439  0.500000      0.005556
  0.157895  0.157895  0.500000      0.005556
  0.140351  0.140351  0.500000      0.005556
  0.122807  0.122807  0.500000      0.005556
  0.105263  0.105263  0.500000      0.005556
  0.087719  0.087719  0.500000      0.005556
  0.070175  0.070175  0.500000      0.005556
  0.052632  0.052632  0.500000      0.005556
  0.035088  0.035088  0.500000      0.005556
  0.017544  0.017544  0.500000      0.005556
 -0.000000 -0.000000  0.500000      0.005556
  0.500000  0.000000  0.500000      0.005556
  0.500000  0.000000  0.473684      0.005556
  0.500000  0.000000  0.447368      0.005556
  0.500000  0.000000  0.421053      0.005556
  0.500000  0.000000  0.394737      0.005556
  0.500000  0.000000  0.368421      0.005556
  0.500000  0.000000  0.342105      0.005556
  0.500000  0.000000  0.315789      0.005556
  0.500000  0.000000  0.289474      0.005556
  0.500000  0.000000  0.263158      0.005556
  0.500000  0.000000  0.236842      0.005556
  0.500000  0.000000  0.210526      0.005556
  0.500000  0.000000  0.184211      0.005556
  0.500000  0.000000  0.157895      0.005556
  0.500000  0.000000  0.131579      0.005556
  0.500000  0.000000  0.105263      0.005556
  0.500000  0.000000  0.078947      0.005556
  0.500000  0.000000  0.052632      0.005556
  0.500000  0.000000  0.026316      0.005556
  0.500000  0.000000  0.000000      0.005556
  0.333333  0.333333  0.500000      0.005556
  0.333333  0.333333  0.473684      0.005556
  0.333333  0.333333  0.447368      0.005556
  0.333333  0.333333  0.421053      0.005556
  0.333333  0.333333  0.394737      0.005556
  0.333333  0.333333  0.368421      0.005556
  0.333333  0.333333  0.342105      0.005556
  0.333333  0.333333  0.315789      0.005556
  0.333333  0.333333  0.289474      0.005556
  0.333333  0.333333  0.263158      0.005556
  0.333333  0.333333  0.236842      0.005556
  0.333333  0.333333  0.210526      0.005556
  0.333333  0.333333  0.184211      0.005556
  0.333333  0.333333  0.157895      0.005556
  0.333333  0.333333  0.131579      0.005556
  0.333333  0.333333  0.105263      0.005556
  0.333333  0.333333  0.078947      0.005556
  0.333333  0.333333  0.052632      0.005556
  0.333333  0.333333  0.026316      0.005556
  0.333333  0.333333  0.000000      0.005556

 Following cartesian coordinates:
            Coordinates               Weight
  0.000000  0.000000  0.000000      0.005556
  0.005830  0.003366  0.000000      0.005556
  0.011660  0.006732  0.000000      0.005556
  0.017490  0.010098  0.000000      0.005556
  0.023320  0.013464  0.000000      0.005556
  0.029150  0.016830  0.000000      0.005556
  0.034980  0.020196  0.000000      0.005556
  0.040810  0.023562  0.000000      0.005556
  0.046641  0.026928  0.000000      0.005556
  0.052471  0.030294  0.000000      0.005556
  0.058301  0.033660  0.000000      0.005556
  0.064131  0.037026  0.000000      0.005556
  0.069961  0.040392  0.000000      0.005556
  0.075791  0.043758  0.000000      0.005556
  0.081621  0.047124  0.000000      0.005556
  0.087451  0.050490  0.000000      0.005556
  0.093281  0.053856  0.000000      0.005556
  0.099111  0.057222  0.000000      0.005556
  0.104941  0.060588  0.000000      0.005556
  0.110771  0.063954  0.000000      0.005556
  0.110771  0.063954  0.000000      0.005556
  0.108828  0.067320  0.000000      0.005556
  0.106884  0.070686  0.000000      0.005556
  0.104941  0.074052  0.000000      0.005556
  0.102998  0.077418  0.000000      0.005556
  0.101054  0.080784  0.000000      0.005556
  0.099111  0.084150  0.000000      0.005556
  0.097168  0.087516  0.000000      0.005556
  0.095224  0.090882  0.000000      0.005556
  0.093281  0.094248  0.000000      0.005556
  0.091338  0.097614  0.000000      0.005556
  0.089394  0.100980  0.000000      0.005556
  0.087451  0.104346  0.000000      0.005556
  0.085508  0.107712  0.000000      0.005556
  0.083564  0.111078  0.000000      0.005556
  0.081621  0.114444  0.000000      0.005556
  0.079678  0.117810  0.000000      0.005556
  0.077734  0.121176  0.000000      0.005556
  0.075791  0.124542  0.000000      0.005556
  0.073847  0.127908  0.000000      0.005556
  0.073847  0.127908  0.000000      0.005556
  0.069961  0.121176  0.000000      0.005556
  0.066074  0.114444  0.000000      0.005556
  0.062187  0.107712  0.000000      0.005556
  0.058301  0.100980  0.000000      0.005556
  0.054414  0.094248  0.000000      0.005556
  0.050527  0.087516  0.000000      0.005556
  0.046641  0.080784  0.000000      0.005556
  0.042754  0.074052  0.000000      0.005556
  0.038867  0.067320  0.000000      0.005556
  0.034980  0.060588  0.000000      0.005556
  0.031094  0.053856  0.000000      0.005556
  0.027207  0.047124  0.000000      0.005556
  0.023320  0.040392  0.000000      0.005556
  0.019434  0.033660  0.000000      0.005556
  0.015547  0.026928  0.000000      0.005556
  0.011660  0.020196  0.000000      0.005556
  0.007773  0.013464  0.000000      0.005556
  0.003887  0.006732  0.000000      0.005556
 -0.000000 -0.000000  0.000000      0.005556
  0.000000  0.000000  0.000000      0.005556
  0.000000  0.000000  0.004415      0.005556
  0.000000  0.000000  0.008830      0.005556
  0.000000  0.000000  0.013245      0.005556
  0.000000  0.000000  0.017660      0.005556
  0.000000  0.000000  0.022075      0.005556
  0.000000  0.000000  0.026490      0.005556
  0.000000  0.000000  0.030905      0.005556
  0.000000  0.000000  0.035320      0.005556
  0.000000  0.000000  0.039735      0.005556
  0.000000  0.000000  0.044150      0.005556
  0.000000  0.000000  0.048565      0.005556
  0.000000  0.000000  0.052981      0.005556
  0.000000  0.000000  0.057396      0.005556
  0.000000  0.000000  0.061811      0.005556
  0.000000  0.000000  0.066226      0.005556
  0.000000  0.000000  0.070641      0.005556
  0.000000  0.000000  0.075056      0.005556
  0.000000  0.000000  0.079471      0.005556
  0.000000  0.000000  0.083886      0.005556
  0.000000  0.000000  0.083886      0.005556
  0.005830  0.003366  0.083886      0.005556
  0.011660  0.006732  0.083886      0.005556
  0.017490  0.010098  0.083886      0.005556
  0.023320  0.013464  0.083886      0.005556
  0.029150  0.016830  0.083886      0.005556
  0.034980  0.020196  0.083886      0.005556
  0.040810  0.023562  0.083886      0.005556
  0.046641  0.026928  0.083886      0.005556
  0.052471  0.030294  0.083886      0.005556
  0.058301  0.033660  0.083886      0.005556
  0.064131  0.037026  0.083886      0.005556
  0.069961  0.040392  0.083886      0.005556
  0.075791  0.043758  0.083886      0.005556
  0.081621  0.047124  0.083886      0.005556
  0.087451  0.050490  0.083886      0.005556
  0.093281  0.053856  0.083886      0.005556
  0.099111  0.057222  0.083886      0.005556
  0.104941  0.060588  0.083886      0.005556
  0.110771  0.063954  0.083886      0.005556
  0.110771  0.063954  0.083886      0.005556
  0.108828  0.067320  0.083886      0.005556
  0.106884  0.070686  0.083886      0.005556
  0.104941  0.074052  0.083886      0.005556
  0.102998  0.077418  0.083886      0.005556
  0.101054  0.080784  0.083886      0.005556
  0.099111  0.084150  0.083886      0.005556
  0.097168  0.087516  0.083886      0.005556
  0.095224  0.090882  0.083886      0.005556
  0.093281  0.094248  0.083886      0.005556
  0.091338  0.097614  0.083886      0.005556
  0.089394  0.100980  0.083886      0.005556
  0.087451  0.104346  0.083886      0.005556
  0.085508  0.107712  0.083886      0.005556
  0.083564  0.111078  0.083886      0.005556
  0.081621  0.114444  0.083886      0.005556
  0.079678  0.117810  0.083886      0.005556
  0.077734  0.121176  0.083886      0.005556
  0.075791  0.124542  0.083886      0.005556
  0.073847  0.127908  0.083886      0.005556
  0.073847  0.127908  0.083886      0.005556
  0.069961  0.121176  0.083886      0.005556
  0.066074  0.114444  0.083886      0.005556
  0.062187  0.107712  0.083886      0.005556
  0.058301  0.100980  0.083886      0.005556
  0.054414  0.094248  0.083886      0.005556
  0.050527  0.087516  0.083886      0.005556
  0.046641  0.080784  0.083886      0.005556
  0.042754  0.074052  0.083886      0.005556
  0.038867  0.067320  0.083886      0.005556
  0.034980  0.060588  0.083886      0.005556
  0.031094  0.053856  0.083886      0.005556
  0.027207  0.047124  0.083886      0.005556
  0.023320  0.040392  0.083886      0.005556
  0.019434  0.033660  0.083886      0.005556
  0.015547  0.026928  0.083886      0.005556
  0.011660  0.020196  0.083886      0.005556
  0.007773  0.013464  0.083886      0.005556
  0.003887  0.006732  0.083886      0.005556
 -0.000000 -0.000000  0.083886      0.005556
  0.110771  0.063954  0.083886      0.005556
  0.110771  0.063954  0.079471      0.005556
  0.110771  0.063954  0.075056      0.005556
  0.110771  0.063954  0.070641      0.005556
  0.110771  0.063954  0.066226      0.005556
  0.110771  0.063954  0.061811      0.005556
  0.110771  0.063954  0.057396      0.005556
  0.110771  0.063954  0.052981      0.005556
  0.110771  0.063954  0.048565      0.005556
  0.110771  0.063954  0.044150      0.005556
  0.110771  0.063954  0.039735      0.005556
  0.110771  0.063954  0.035320      0.005556
  0.110771  0.063954  0.030905      0.005556
  0.110771  0.063954  0.026490      0.005556
  0.110771  0.063954  0.022075      0.005556
  0.110771  0.063954  0.017660      0.005556
  0.110771  0.063954  0.013245      0.005556
  0.110771  0.063954  0.008830      0.005556
  0.110771  0.063954  0.004415      0.005556
  0.110771  0.063954  0.000000      0.005556
  0.073847  0.127908  0.083886      0.005556
  0.073847  0.127908  0.079471      0.005556
  0.073847  0.127908  0.075056      0.005556
  0.073847  0.127908  0.070641      0.005556
  0.073847  0.127908  0.066226      0.005556
  0.073847  0.127908  0.061811      0.005556
  0.073847  0.127908  0.057396      0.005556
  0.073847  0.127908  0.052981      0.005556
  0.073847  0.127908  0.048565      0.005556
  0.073847  0.127908  0.044150      0.005556
  0.073847  0.127908  0.039735      0.005556
  0.073847  0.127908  0.035320      0.005556
  0.073847  0.127908  0.030905      0.005556
  0.073847  0.127908  0.026490      0.005556
  0.073847  0.127908  0.022075      0.005556
  0.073847  0.127908  0.017660      0.005556
  0.073847  0.127908  0.013245      0.005556
  0.073847  0.127908  0.008830      0.005556
  0.073847  0.127908  0.004415      0.005556
  0.073847  0.127908  0.000000      0.005556



--------------------------------------------------------------------------------------------------------




 Dimension of arrays:
   k-points           NKPTS =    180   k-points in BZ     NKDIM =    180   number of bands    NBANDS=     32
   number of dos      NEDOS =   1000   number of ions     NIONS =      3
   non local maximal  LDIM  =      5   non local SUM 2l+1 LMDIM =     13
   total plane-waves  NPLWV =  36000
   max r-space proj   IRMAX =      1   max aug-charges    IRDMAX=  20106
   dimension x,y,z NGX =    30 NGY =   30 NGZ =   40
   dimension x,y,z NGXF=    60 NGYF=   60 NGZF=   80
   support grid    NGXF=    60 NGYF=   60 NGZF=   80
   ions per type =               3
   NGX,Y,Z   is equivalent  to a cutoff of  11.05, 11.05, 11.16 a.u.
   NGXF,Y,Z  is equivalent  to a cutoff of  22.10, 22.10, 22.31 a.u.

 SYSTEM =  Te                                      
 POSCAR =  Generated by VASPKIT code               

 Startparameter for this run:
   NWRITE =      2    write-flag & timer
   PREC   = accura    normal or accurate (medium, high low for compatibility)
   ISTART =      1    job   : 0-new  1-cont  2-samecut
   ICHARG =     11    charge: 1-file 2-atom 10-const
   ISPIN  =      1    spin polarized calculation?
   LNONCOLLINEAR =      F non collinear calculations
   LSORBIT =      F    spin-orbit coupling
   INIWAV =      1    electr: 0-lowe 1-rand  2-diag
   LASPH  =      F    aspherical Exc in radial PAW
 Electronic Relaxation 1
   ENCUT  =  400.0 eV  29.40 Ry    5.42 a.u.   7.36  7.36  9.72*2*pi/ulx,y,z
   ENINI  =  400.0     initial cutoff
   ENAUG  =  368.8 eV  augmentation charge cutoff
   NELM   =    300;   NELMIN=  5; NELMDL=  0     # of ELM steps 
   EDIFF  = 0.1E-05   stopping-criterion for ELM
   LREAL  =      F    real-space projection
   NLSPLINE    = F    spline interpolate recip. space projectors
   LCOMPAT=      F    compatible to vasp.4.4
   GGA_COMPAT  = T    GGA compatible to vasp.4.4-vasp.4.6
   LMAXPAW     = -100 max onsite density
   LMAXMIX     =    2 max onsite mixed and CHGCAR
   VOSKOWN=      0    Vosko Wilk Nusair interpolation
   ROPT   =    0.00000
 Ionic relaxation
   EDIFFG = 0.1E-04   stopping-criterion for IOM
   NSW    =      0    number of steps for IOM
   NBLOCK =      1;   KBLOCK =      1    inner block; outer block 
   IBRION =     -1    ionic relax: 0-MD 1-quasi-New 2-CG
   NFREE  =      0    steps in history (QN), initial steepest desc. (CG)
   ISIF   =      2    stress and relaxation
   IWAVPR =     10    prediction:  0-non 1-charg 2-wave 3-comb
   ISYM   =      2    0-nonsym 1-usesym 2-fastsym
   LCORR  =      T    Harris-Foulkes like correction to forces

   POTIM  = 0.5000    time-step for ionic-motion
   TEIN   =    0.0    initial temperature
   TEBEG  =    0.0;   TEEND  =   0.0 temperature during run
   SMASS  =  -3.00    Nose mass-parameter (am)
   estimated Nose-frequenzy (Omega)   =  0.10E-29 period in steps = 0.13E+47 mass=  -0.466E-27a.u.
   SCALEE = 1.0000    scale energy and forces
   NPACO  =    256;   APACO  = 10.0  distance and # of slots for P.C.
   PSTRESS=    0.0 pullay stress

  Mass of Ions in am
   POMASS = 127.60
  Ionic Valenz
   ZVAL   =   6.00
  Atomic Wigner-Seitz radii
   RWIGS  =  -1.00
  virtual crystal weights 
   VCA    =   1.00
   NELECT =      18.0000    total number of electrons
   NUPDOWN=      -1.0000    fix difference up-down

 DOS related values:
   EMIN   =  10.00;   EMAX   =-10.00  energy-range for DOS
   EFERMI =   0.00
   ISMEAR =     0;   SIGMA  =   0.05  broadening in eV -4-tet -1-fermi 0-gaus

 Electronic relaxation 2 (details)
   IALGO  =     38    algorithm
   LDIAG  =      T    sub-space diagonalisation (order eigenvalues)
   LSUBROT=      F    optimize rotation matrix (better conditioning)
   TURBO    =      0    0=normal 1=particle mesh
   IRESTART =      0    0=no restart 2=restart with 2 vectors
   NREBOOT  =      0    no. of reboots
   NMIN     =      0    reboot dimension
   EREF     =   0.00    reference energy to select bands
   IMIX   =      4    mixing-type and parameters
     AMIX     =   0.40;   BMIX     =  1.00
     AMIX_MAG =   1.60;   BMIX_MAG =  1.00
     AMIN     =   0.10
     WC   =   100.;   INIMIX=   1;  MIXPRE=   1;  MAXMIX= -45

 Intra band minimization:
   WEIMIN = 0.0000     energy-eigenvalue tresh-hold
   EBREAK =  0.78E-08  absolut break condition
   DEPER  =   0.30     relativ break condition  

   TIME   =   0.40     timestep for ELM

  volume/ion in A,a.u.               =      35.06       236.58
  Fermi-wavevector in a.u.,A,eV,Ry     =   0.908935  1.717638 11.240632  0.826163
  Thomas-Fermi vector in A             =   2.032920

 Write flags
   LWAVE        =      T    write WAVECAR
   LDOWNSAMPLE  =      F    k-point downsampling of WAVECAR
   LCHARG       =      T    write CHGCAR
   LVTOT        =      F    write LOCPOT, total local potential
   LVHAR        =      F    write LOCPOT, Hartree potential only
   LELF         =      F    write electronic localiz. function (ELF)
   LORBIT       =     11    0 simple, 1 ext, 2 COOP (PROOUT), +10 PAW based schemes


 Dipole corrections
   LMONO  =      F    monopole corrections only (constant potential shift)
   LDIPOL =      F    correct potential (dipole corrections)
   IDIPOL =      0    1-x, 2-y, 3-z, 4-all directions 
   EPSILON=  1.0000000 bulk dielectric constant

 Exchange correlation treatment:
   GGA     =    PE    GGA type
   LEXCH   =     8    internal setting for exchange type
   LIBXC   =     F    Libxc                    
   VOSKOWN =     0    Vosko Wilk Nusair interpolation
   LHFCALC =     F    Hartree Fock is set to
   LHFONE  =     F    Hartree Fock one center treatment
   AEXX    =    0.0000 exact exchange contribution

 Linear response parameters
   LEPSILON=     F    determine dielectric tensor
   LRPA    =     F    only Hartree local field effects (RPA)
   LNABLA  =     F    use nabla operator in PAW spheres
   LVEL    =     F    velocity operator in full k-point grid
   CSHIFT  =0.1000    complex shift for real part using Kramers Kronig
   OMEGAMAX=  -1.0    maximum frequency
   DEG_THRESHOLD= 0.2000000E-02 threshold for treating states as degnerate
   RTIME   =   -0.100 relaxation time in fs
  (WPLASMAI=    0.000 imaginary part of plasma frequency in eV, 0.658/RTIME)
   DFIELD  = 0.0000000 0.0000000 0.0000000 field for delta impulse in time

  Optional k-point grid parameters
   LKPOINTS_OPT  =     F    use optional k-point grid
   KPOINTS_OPT_MODE=     1    mode for optional k-point grid

 Orbital magnetization related:
   ORBITALMAG=     F  switch on orbital magnetization
   LCHIMAG   =     F  perturbation theory with respect to B field
   DQ        =  0.001000  dq finite difference perturbation B field
   LLRAUG    =     F  two centre corrections for induced B field



--------------------------------------------------------------------------------------------------------


 Static calculation
 charge density and potential remain constant during run
 non-spin polarized calculation
 Variant of blocked Davidson
 Davidson routine will perform the subspace rotation
 perform sub-space diagonalisation
    after iterative eigenvector-optimisation
 no mixing
 using additional bands           23
 reciprocal scheme for non local part
 use partial core corrections
 calculate Harris-corrections to forces   (improved forces if not selfconsistent)
 use gradient corrections 
 WARNING: stress and forces are not correct
  (second derivative of E(xc) not defined)
 use of overlap-Matrix (Vanderbilt PP)
 Gauss-broadening in eV      SIGMA  =   0.05


--------------------------------------------------------------------------------------------------------


  energy-cutoff  :      400.00
  volume of cell :      105.17
      direct lattice vectors                 reciprocal lattice vectors
     4.513808822  0.000000000  0.000000000     0.221542391  0.127907559 -0.000000000
    -2.256904411  3.909073108  0.000000000     0.000000000  0.255815118  0.000000000
     0.000000000  0.000000000  5.960481076     0.000000000 -0.000000000  0.167771693

  length of vectors
     4.513808822  4.513808822  5.960481076     0.255815118  0.255815118  0.167771693



 old parameters found on file WAVECAR:
  energy-cutoff  :      400.00
  volume of cell :      105.17
      direct lattice vectors                 reciprocal lattice vectors
     4.513808822  0.000000000  0.000000000     0.221542391  0.127907559 -0.000000000
    -2.256904411  3.909073108  0.000000000     0.000000000  0.255815118  0.000000000
     0.000000000  0.000000000  5.960481076     0.000000000 -0.000000000  0.167771693

  length of vectors


 k-points in units of 2pi/SCALE and weight: K-Path Generated by VASPKIT.            
   0.00000000  0.00000000  0.00000000       0.006
   0.00583006  0.00336599  0.00000000       0.006
   0.01166013  0.00673198  0.00000000       0.006
   0.01749019  0.01009797  0.00000000       0.006
   0.02332025  0.01346395  0.00000000       0.006
   0.02915031  0.01682994  0.00000000       0.006
   0.03498038  0.02019593  0.00000000       0.006
   0.04081044  0.02356192  0.00000000       0.006
   0.04664050  0.02692791  0.00000000       0.006
   0.05247057  0.03029390  0.00000000       0.006
   0.05830063  0.03365988  0.00000000       0.006
   0.06413069  0.03702587  0.00000000       0.006
   0.06996076  0.04039186  0.00000000       0.006
   0.07579082  0.04375785  0.00000000       0.006
   0.08162088  0.04712384  0.00000000       0.006
   0.08745094  0.05048983  0.00000000       0.006
   0.09328101  0.05385581  0.00000000       0.006
   0.09911107  0.05722180  0.00000000       0.006
   0.10494113  0.06058779  0.00000000       0.006
   0.11077120  0.06395378  0.00000000       0.006
   0.11077120  0.06395378  0.00000000       0.006
   0.10882784  0.06731977  0.00000000       0.006
   0.10688449  0.07068576  0.00000000       0.006
   0.10494113  0.07405174  0.00000000       0.006
   0.10299778  0.07741773  0.00000000       0.006
   0.10105442  0.08078372  0.00000000       0.006
   0.09911107  0.08414971  0.00000000       0.006
   0.09716772  0.08751570  0.00000000       0.006
   0.09522436  0.09088169  0.00000000       0.006
   0.09328101  0.09424768  0.00000000       0.006
   0.09133765  0.09761366  0.00000000       0.006
   0.08939430  0.10097965  0.00000000       0.006
   0.08745094  0.10434564  0.00000000       0.006
   0.08550759  0.10771163  0.00000000       0.006
   0.08356424  0.11107762  0.00000000       0.006
   0.08162088  0.11444361  0.00000000       0.006
   0.07967753  0.11780959  0.00000000       0.006
   0.07773417  0.12117558  0.00000000       0.006
   0.07579082  0.12454157  0.00000000       0.006
   0.07384746  0.12790756  0.00000000       0.006
   0.07384746  0.12790756  0.00000000       0.006
   0.06996076  0.12117558  0.00000000       0.006
   0.06607405  0.11444361  0.00000000       0.006
   0.06218734  0.10771163  0.00000000       0.006
   0.05830063  0.10097965  0.00000000       0.006
   0.05441392  0.09424768  0.00000000       0.006
   0.05052721  0.08751570  0.00000000       0.006
   0.04664050  0.08078372  0.00000000       0.006
   0.04275379  0.07405174  0.00000000       0.006
   0.03886709  0.06731977  0.00000000       0.006
   0.03498038  0.06058779  0.00000000       0.006
   0.03109367  0.05385581  0.00000000       0.006
   0.02720696  0.04712384  0.00000000       0.006
   0.02332025  0.04039186  0.00000000       0.006
   0.01943354  0.03365988  0.00000000       0.006
   0.01554683  0.02692791  0.00000000       0.006
   0.01166013  0.02019593  0.00000000       0.006
   0.00777342  0.01346395  0.00000000       0.006
   0.00388671  0.00673198  0.00000000       0.006
  -0.00000000 -0.00000000  0.00000000       0.006
   0.00000000  0.00000000  0.00000000       0.006
   0.00000000  0.00000000  0.00441504       0.006
   0.00000000  0.00000000  0.00883009       0.006
   0.00000000  0.00000000  0.01324513       0.006
   0.00000000  0.00000000  0.01766018       0.006
   0.00000000  0.00000000  0.02207522       0.006
   0.00000000  0.00000000  0.02649027       0.006
   0.00000000  0.00000000  0.03090531       0.006
   0.00000000  0.00000000  0.03532036       0.006
   0.00000000  0.00000000  0.03973540       0.006
   0.00000000  0.00000000  0.04415045       0.006
   0.00000000  0.00000000  0.04856549       0.006
   0.00000000  0.00000000  0.05298053       0.006
   0.00000000  0.00000000  0.05739558       0.006
   0.00000000  0.00000000  0.06181062       0.006
   0.00000000  0.00000000  0.06622567       0.006
   0.00000000  0.00000000  0.07064071       0.006
   0.00000000  0.00000000  0.07505576       0.006
   0.00000000  0.00000000  0.07947080       0.006
   0.00000000  0.00000000  0.08388585       0.006
   0.00000000  0.00000000  0.08388585       0.006
   0.00583006  0.00336599  0.08388585       0.006
   0.01166013  0.00673198  0.08388585       0.006
   0.01749019  0.01009797  0.08388585       0.006
   0.02332025  0.01346395  0.08388585       0.006
   0.02915031  0.01682994  0.08388585       0.006
   0.03498038  0.02019593  0.08388585       0.006
   0.04081044  0.02356192  0.08388585       0.006
   0.04664050  0.02692791  0.08388585       0.006
   0.05247057  0.03029390  0.08388585       0.006
   0.05830063  0.03365988  0.08388585       0.006
   0.06413069  0.03702587  0.08388585       0.006
   0.06996076  0.04039186  0.08388585       0.006
   0.07579082  0.04375785  0.08388585       0.006
   0.08162088  0.04712384  0.08388585       0.006
   0.08745094  0.05048983  0.08388585       0.006
   0.09328101  0.05385581  0.08388585       0.006
   0.09911107  0.05722180  0.08388585       0.006
   0.10494113  0.06058779  0.08388585       0.006
   0.11077120  0.06395378  0.08388585       0.006
   0.11077120  0.06395378  0.08388585       0.006
   0.10882784  0.06731977  0.08388585       0.006
   0.10688449  0.07068576  0.08388585       0.006
   0.10494113  0.07405174  0.08388585       0.006
   0.10299778  0.07741773  0.08388585       0.006
   0.10105442  0.08078372  0.08388585       0.006
   0.09911107  0.08414971  0.08388585       0.006
   0.09716772  0.08751570  0.08388585       0.006
   0.09522436  0.09088169  0.08388585       0.006
   0.09328101  0.09424768  0.08388585       0.006
   0.09133765  0.09761366  0.08388585       0.006
   0.08939430  0.10097965  0.08388585       0.006
   0.08745094  0.10434564  0.08388585       0.006
   0.08550759  0.10771163  0.08388585       0.006
   0.08356424  0.11107762  0.08388585       0.006
   0.08162088  0.11444361  0.08388585       0.006
   0.07967753  0.11780959  0.08388585       0.006
   0.07773417  0.12117558  0.08388585       0.006
   0.07579082  0.12454157  0.08388585       0.006
   0.07384746  0.12790756  0.08388585       0.006
   0.07384746  0.12790756  0.08388585       0.006
   0.06996076  0.12117558  0.08388585       0.006
   0.06607405  0.11444361  0.08388585       0.006
   0.06218734  0.10771163  0.08388585       0.006
   0.05830063  0.10097965  0.08388585       0.006
   0.05441392  0.09424768  0.08388585       0.006
   0.05052721  0.08751570  0.08388585       0.006
   0.04664050  0.08078372  0.08388585       0.006
   0.04275379  0.07405174  0.08388585       0.006
   0.03886709  0.06731977  0.08388585       0.006
   0.03498038  0.06058779  0.08388585       0.006
   0.03109367  0.05385581  0.08388585       0.006
   0.02720696  0.04712384  0.08388585       0.006
   0.02332025  0.04039186  0.08388585       0.006
   0.01943354  0.03365988  0.08388585       0.006
   0.01554683  0.02692791  0.08388585       0.006
   0.01166013  0.02019593  0.08388585       0.006
   0.00777342  0.01346395  0.08388585       0.006
   0.00388671  0.00673198  0.08388585       0.006
  -0.00000000 -0.00000000  0.08388585       0.006
   0.11077120  0.06395378  0.08388585       0.006
   0.11077120  0.06395378  0.07947080       0.006
   0.11077120  0.06395378  0.07505576       0.006
   0.11077120  0.06395378  0.07064071       0.006
   0.11077120  0.06395378  0.06622567       0.006
   0.11077120  0.06395378  0.06181062       0.006
   0.11077120  0.06395378  0.05739558       0.006
   0.11077120  0.06395378  0.05298053       0.006
   0.11077120  0.06395378  0.04856549       0.006
   0.11077120  0.06395378  0.04415045       0.006
   0.11077120  0.06395378  0.03973540       0.006
   0.11077120  0.06395378  0.03532036       0.006
   0.11077120  0.06395378  0.03090531       0.006
   0.11077120  0.06395378  0.02649027       0.006
   0.11077120  0.06395378  0.02207522       0.006
   0.11077120  0.06395378  0.01766018       0.006
   0.11077120  0.06395378  0.01324513       0.006
   0.11077120  0.06395378  0.00883009       0.006
   0.11077120  0.06395378  0.00441504       0.006
   0.11077120  0.06395378  0.00000000       0.006
   0.07384746  0.12790756  0.08388585       0.006
   0.07384746  0.12790756  0.07947080       0.006
   0.07384746  0.12790756  0.07505576       0.006
   0.07384746  0.12790756  0.07064071       0.006
   0.07384746  0.12790756  0.06622567       0.006
   0.07384746  0.12790756  0.06181062       0.006
   0.07384746  0.12790756  0.05739558       0.006
   0.07384746  0.12790756  0.05298053       0.006
   0.07384746  0.12790756  0.04856549       0.006
   0.07384746  0.12790756  0.04415045       0.006
   0.07384746  0.12790756  0.03973540       0.006
   0.07384746  0.12790756  0.03532036       0.006
   0.07384746  0.12790756  0.03090531       0.006
   0.07384746  0.12790756  0.02649027       0.006
   0.07384746  0.12790756  0.02207522       0.006
   0.07384746  0.12790756  0.01766018       0.006
   0.07384746  0.12790756  0.01324513       0.006
   0.07384746  0.12790756  0.00883009       0.006
   0.07384746  0.12790756  0.00441504       0.006
   0.07384746  0.12790756  0.00000000       0.006

 k-points in reciprocal lattice and weights: K-Path Generated by VASPKIT.            
   0.00000000  0.00000000  0.00000000       0.006
   0.02631579  0.00000000  0.00000000       0.006
   0.05263158  0.00000000  0.00000000       0.006
   0.07894737  0.00000000  0.00000000       0.006
   0.10526316  0.00000000  0.00000000       0.006
   0.13157895  0.00000000  0.00000000       0.006
   0.15789474  0.00000000  0.00000000       0.006
   0.18421053  0.00000000  0.00000000       0.006
   0.21052632  0.00000000  0.00000000       0.006
   0.23684211  0.00000000  0.00000000       0.006
   0.26315789  0.00000000  0.00000000       0.006
   0.28947368  0.00000000  0.00000000       0.006
   0.31578947  0.00000000  0.00000000       0.006
   0.34210526  0.00000000  0.00000000       0.006
   0.36842105  0.00000000  0.00000000       0.006
   0.39473684  0.00000000  0.00000000       0.006
   0.42105263  0.00000000  0.00000000       0.006
   0.44736842  0.00000000  0.00000000       0.006
   0.47368421  0.00000000  0.00000000       0.006
   0.50000000  0.00000000  0.00000000       0.006
   0.50000000  0.00000000  0.00000000       0.006
   0.49122807  0.01754386  0.00000000       0.006
   0.48245614  0.03508772  0.00000000       0.006
   0.47368421  0.05263158  0.00000000       0.006
   0.46491228  0.07017544  0.00000000       0.006
   0.45614035  0.08771930  0.00000000       0.006
   0.44736842  0.10526316  0.00000000       0.006
   0.43859649  0.12280702  0.00000000       0.006
   0.42982456  0.14035088  0.00000000       0.006
   0.42105263  0.15789474  0.00000000       0.006
   0.41228070  0.17543860  0.00000000       0.006
   0.40350877  0.19298246  0.00000000       0.006
   0.39473684  0.21052632  0.00000000       0.006
   0.38596491  0.22807018  0.00000000       0.006
   0.37719298  0.24561404  0.00000000       0.006
   0.36842105  0.26315789  0.00000000       0.006
   0.35964912  0.28070175  0.00000000       0.006
   0.35087719  0.29824561  0.00000000       0.006
   0.34210526  0.31578947  0.00000000       0.006
   0.33333333  0.33333333  0.00000000       0.006
   0.33333333  0.33333333  0.00000000       0.006
   0.31578947  0.31578947  0.00000000       0.006
   0.29824561  0.29824561  0.00000000       0.006
   0.28070175  0.28070175  0.00000000       0.006
   0.26315789  0.26315789  0.00000000       0.006
   0.24561404  0.24561404  0.00000000       0.006
   0.22807018  0.22807018  0.00000000       0.006
   0.21052632  0.21052632  0.00000000       0.006
   0.19298246  0.19298246  0.00000000       0.006
   0.17543860  0.17543860  0.00000000       0.006
   0.15789474  0.15789474  0.00000000       0.006
   0.14035088  0.14035088  0.00000000       0.006
   0.12280702  0.12280702  0.00000000       0.006
   0.10526316  0.10526316  0.00000000       0.006
   0.08771930  0.08771930  0.00000000       0.006
   0.07017544  0.07017544  0.00000000       0.006
   0.05263158  0.05263158  0.00000000       0.006
   0.03508772  0.03508772  0.00000000       0.006
   0.01754386  0.01754386  0.00000000       0.006
  -0.00000000 -0.00000000  0.00000000       0.006
   0.00000000  0.00000000  0.00000000       0.006
   0.00000000  0.00000000  0.02631579       0.006
   0.00000000  0.00000000  0.05263158       0.006
   0.00000000  0.00000000  0.07894737       0.006
   0.00000000  0.00000000  0.10526316       0.006
   0.00000000  0.00000000  0.13157895       0.006
   0.00000000  0.00000000  0.15789474       0.006
   0.00000000  0.00000000  0.18421053       0.006
   0.00000000  0.00000000  0.21052632       0.006
   0.00000000  0.00000000  0.23684211       0.006
   0.00000000  0.00000000  0.26315789       0.006
   0.00000000  0.00000000  0.28947368       0.006
   0.00000000  0.00000000  0.31578947       0.006
   0.00000000  0.00000000  0.34210526       0.006
   0.00000000  0.00000000  0.36842105       0.006
   0.00000000  0.00000000  0.39473684       0.006
   0.00000000  0.00000000  0.42105263       0.006
   0.00000000  0.00000000  0.44736842       0.006
   0.00000000  0.00000000  0.47368421       0.006
   0.00000000  0.00000000  0.50000000       0.006
   0.00000000  0.00000000  0.50000000       0.006
   0.02631579  0.00000000  0.50000000       0.006
   0.05263158  0.00000000  0.50000000       0.006
   0.07894737  0.00000000  0.50000000       0.006
   0.10526316  0.00000000  0.50000000       0.006
   0.13157895  0.00000000  0.50000000       0.006
   0.15789474  0.00000000  0.50000000       0.006
   0.18421053  0.00000000  0.50000000       0.006
   0.21052632  0.00000000  0.50000000       0.006
   0.23684211  0.00000000  0.50000000       0.006
   0.26315789  0.00000000  0.50000000       0.006
   0.28947368  0.00000000  0.50000000       0.006
   0.31578947  0.00000000  0.50000000       0.006
   0.34210526  0.00000000  0.50000000       0.006
   0.36842105  0.00000000  0.50000000       0.006
   0.39473684  0.00000000  0.50000000       0.006
   0.42105263  0.00000000  0.50000000       0.006
   0.44736842  0.00000000  0.50000000       0.006
   0.47368421  0.00000000  0.50000000       0.006
   0.50000000  0.00000000  0.50000000       0.006
   0.50000000  0.00000000  0.50000000       0.006
   0.49122807  0.01754386  0.50000000       0.006
   0.48245614  0.03508772  0.50000000       0.006
   0.47368421  0.05263158  0.50000000       0.006
   0.46491228  0.07017544  0.50000000       0.006
   0.45614035  0.08771930  0.50000000       0.006
   0.44736842  0.10526316  0.50000000       0.006
   0.43859649  0.12280702  0.50000000       0.006
   0.42982456  0.14035088  0.50000000       0.006
   0.42105263  0.15789474  0.50000000       0.006
   0.41228070  0.17543860  0.50000000       0.006
   0.40350877  0.19298246  0.50000000       0.006
   0.39473684  0.21052632  0.50000000       0.006
   0.38596491  0.22807018  0.50000000       0.006
   0.37719298  0.24561404  0.50000000       0.006
   0.36842105  0.26315789  0.50000000       0.006
   0.35964912  0.28070175  0.50000000       0.006
   0.35087719  0.29824561  0.50000000       0.006
   0.34210526  0.31578947  0.50000000       0.006
   0.33333333  0.33333333  0.50000000       0.006
   0.33333333  0.33333333  0.50000000       0.006
   0.31578947  0.31578947  0.50000000       0.006
   0.29824561  0.29824561  0.50000000       0.006
   0.28070175  0.28070175  0.50000000       0.006
   0.26315789  0.26315789  0.50000000       0.006
   0.24561404  0.24561404  0.50000000       0.006
   0.22807018  0.22807018  0.50000000       0.006
   0.21052632  0.21052632  0.50000000       0.006
   0.19298246  0.19298246  0.50000000       0.006
   0.17543860  0.17543860  0.50000000       0.006
   0.15789474  0.15789474  0.50000000       0.006
   0.14035088  0.14035088  0.50000000       0.006
   0.12280702  0.12280702  0.50000000       0.006
   0.10526316  0.10526316  0.50000000       0.006
   0.08771930  0.08771930  0.50000000       0.006
   0.07017544  0.07017544  0.50000000       0.006
   0.05263158  0.05263158  0.50000000       0.006
   0.03508772  0.03508772  0.50000000       0.006
   0.01754386  0.01754386  0.50000000       0.006
  -0.00000000 -0.00000000  0.50000000       0.006
   0.50000000  0.00000000  0.50000000       0.006
   0.50000000  0.00000000  0.47368421       0.006
   0.50000000  0.00000000  0.44736842       0.006
   0.50000000  0.00000000  0.42105263       0.006
   0.50000000  0.00000000  0.39473684       0.006
   0.50000000  0.00000000  0.36842105       0.006
   0.50000000  0.00000000  0.34210526       0.006
   0.50000000  0.00000000  0.31578947       0.006
   0.50000000  0.00000000  0.28947368       0.006
   0.50000000  0.00000000  0.26315789       0.006
   0.50000000  0.00000000  0.23684211       0.006
   0.50000000  0.00000000  0.21052632       0.006
   0.50000000  0.00000000  0.18421053       0.006
   0.50000000  0.00000000  0.15789474       0.006
   0.50000000  0.00000000  0.13157895       0.006
   0.50000000  0.00000000  0.10526316       0.006
   0.50000000  0.00000000  0.07894737       0.006
   0.50000000  0.00000000  0.05263158       0.006
   0.50000000  0.00000000  0.02631579       0.006
   0.50000000  0.00000000  0.00000000       0.006
   0.33333333  0.33333333  0.50000000       0.006
   0.33333333  0.33333333  0.47368421       0.006
   0.33333333  0.33333333  0.44736842       0.006
   0.33333333  0.33333333  0.42105263       0.006
   0.33333333  0.33333333  0.39473684       0.006
   0.33333333  0.33333333  0.36842105       0.006
   0.33333333  0.33333333  0.34210526       0.006
   0.33333333  0.33333333  0.31578947       0.006
   0.33333333  0.33333333  0.28947368       0.006
   0.33333333  0.33333333  0.26315789       0.006
   0.33333333  0.33333333  0.23684211       0.006
   0.33333333  0.33333333  0.21052632       0.006
   0.33333333  0.33333333  0.18421053       0.006
   0.33333333  0.33333333  0.15789474       0.006
   0.33333333  0.33333333  0.13157895       0.006
   0.33333333  0.33333333  0.10526316       0.006
   0.33333333  0.33333333  0.07894737       0.006
   0.33333333  0.33333333  0.05263158       0.006
   0.33333333  0.33333333  0.02631579       0.006
   0.33333333  0.33333333  0.00000000       0.006

 position of ions in fractional coordinates (direct lattice) 
   0.26884348  0.00000000  0.33333333
   0.00000000  0.26884348  0.66666667
   0.73115652  0.73115652  0.00000000

 position of ions in cartesian coordinates  (Angst):
   1.21350808  0.00000000  1.98682703
  -0.60675404  1.05092883  3.97365405
   1.65015037  2.85814428  0.00000000



--------------------------------------------------------------------------------------------------------


 k-point   1 :   0.0000 0.0000 0.0000  plane waves:    1921
 k-point   2 :   0.0263 0.0000 0.0000  plane waves:    1927
 k-point   3 :   0.0526 0.0000 0.0000  plane waves:    1927
 k-point   4 :   0.0789 0.0000 0.0000  plane waves:    1917
 k-point   5 :   0.1053 0.0000 0.0000  plane waves:    1913
 k-point   6 :   0.1316 0.0000 0.0000  plane waves:    1909
 k-point   7 :   0.1579 0.0000 0.0000  plane waves:    1903
 k-point   8 :   0.1842 0.0000 0.0000  plane waves:    1901
 k-point   9 :   0.2105 0.0000 0.0000  plane waves:    1905
 k-point  10 :   0.2368 0.0000 0.0000  plane waves:    1905
 k-point  11 :   0.2632 0.0000 0.0000  plane waves:    1911
 k-point  12 :   0.2895 0.0000 0.0000  plane waves:    1907
 k-point  13 :   0.3158 0.0000 0.0000  plane waves:    1913
 k-point  14 :   0.3421 0.0000 0.0000  plane waves:    1921
 k-point  15 :   0.3684 0.0000 0.0000  plane waves:    1919
 k-point  16 :   0.3947 0.0000 0.0000  plane waves:    1924
 k-point  17 :   0.4211 0.0000 0.0000  plane waves:    1922
 k-point  18 :   0.4474 0.0000 0.0000  plane waves:    1916
 k-point  19 :   0.4737 0.0000 0.0000  plane waves:    1912
 k-point  20 :   0.5000 0.0000 0.0000  plane waves:    1916
 k-point  21 :   0.5000 0.0000 0.0000  plane waves:    1916
 k-point  22 :   0.4912 0.0175 0.0000  plane waves:    1912
 k-point  23 :   0.4825 0.0351 0.0000  plane waves:    1916
 k-point  24 :   0.4737 0.0526 0.0000  plane waves:    1924
 k-point  25 :   0.4649 0.0702 0.0000  plane waves:    1916
 k-point  26 :   0.4561 0.0877 0.0000  plane waves:    1916
 k-point  27 :   0.4474 0.1053 0.0000  plane waves:    1920
 k-point  28 :   0.4386 0.1228 0.0000  plane waves:    1910
 k-point  29 :   0.4298 0.1404 0.0000  plane waves:    1914
 k-point  30 :   0.4211 0.1579 0.0000  plane waves:    1904
 k-point  31 :   0.4123 0.1754 0.0000  plane waves:    1896
 k-point  32 :   0.4035 0.1930 0.0000  plane waves:    1900
 k-point  33 :   0.3947 0.2105 0.0000  plane waves:    1902
 k-point  34 :   0.3860 0.2281 0.0000  plane waves:    1900
 k-point  35 :   0.3772 0.2456 0.0000  plane waves:    1896
 k-point  36 :   0.3684 0.2632 0.0000  plane waves:    1892
 k-point  37 :   0.3596 0.2807 0.0000  plane waves:    1888
 k-point  38 :   0.3509 0.2982 0.0000  plane waves:    1890
 k-point  39 :   0.3421 0.3158 0.0000  plane waves:    1886
 k-point  40 :   0.3333 0.3333 0.0000  plane waves:    1884
 k-point  41 :   0.3333 0.3333 0.0000  plane waves:    1884
 k-point  42 :   0.3158 0.3158 0.0000  plane waves:    1891
 k-point  43 :   0.2982 0.2982 0.0000  plane waves:    1899
 k-point  44 :   0.2807 0.2807 0.0000  plane waves:    1901
 k-point  45 :   0.2632 0.2632 0.0000  plane waves:    1913
 k-point  46 :   0.2456 0.2456 0.0000  plane waves:    1911
 k-point  47 :   0.2281 0.2281 0.0000  plane waves:    1909
 k-point  48 :   0.2105 0.2105 0.0000  plane waves:    1909
 k-point  49 :   0.1930 0.1930 0.0000  plane waves:    1909
 k-point  50 :   0.1754 0.1754 0.0000  plane waves:    1917
 k-point  51 :   0.1579 0.1579 0.0000  plane waves:    1911
 k-point  52 :   0.1404 0.1404 0.0000  plane waves:    1929
 k-point  53 :   0.1228 0.1228 0.0000  plane waves:    1911
 k-point  54 :   0.1053 0.1053 0.0000  plane waves:    1907
 k-point  55 :   0.0877 0.0877 0.0000  plane waves:    1915
 k-point  56 :   0.0702 0.0702 0.0000  plane waves:    1917
 k-point  57 :   0.0526 0.0526 0.0000  plane waves:    1921
 k-point  58 :   0.0351 0.0351 0.0000  plane waves:    1933
 k-point  59 :   0.0175 0.0175 0.0000  plane waves:    1925
 k-point  60 :  -0.0000-0.0000 0.0000  plane waves:    1921
 k-point  61 :   0.0000 0.0000 0.0000  plane waves:    1921
 k-point  62 :   0.0000 0.0000 0.0263  plane waves:    1909
 k-point  63 :   0.0000 0.0000 0.0526  plane waves:    1915
 k-point  64 :   0.0000 0.0000 0.0789  plane waves:    1915
 k-point  65 :   0.0000 0.0000 0.1053  plane waves:    1915
 k-point  66 :   0.0000 0.0000 0.1316  plane waves:    1915
 k-point  67 :   0.0000 0.0000 0.1579  plane waves:    1927
 k-point  68 :   0.0000 0.0000 0.1842  plane waves:    1921
 k-point  69 :   0.0000 0.0000 0.2105  plane waves:    1921
 k-point  70 :   0.0000 0.0000 0.2368  plane waves:    1915
 k-point  71 :   0.0000 0.0000 0.2632  plane waves:    1927
 k-point  72 :   0.0000 0.0000 0.2895  plane waves:    1934
 k-point  73 :   0.0000 0.0000 0.3158  plane waves:    1934
 k-point  74 :   0.0000 0.0000 0.3421  plane waves:    1934
 k-point  75 :   0.0000 0.0000 0.3684  plane waves:    1928
 k-point  76 :   0.0000 0.0000 0.3947  plane waves:    1934
 k-point  77 :   0.0000 0.0000 0.4211  plane waves:    1928
 k-point  78 :   0.0000 0.0000 0.4474  plane waves:    1940
 k-point  79 :   0.0000 0.0000 0.4737  plane waves:    1940
 k-point  80 :   0.0000 0.0000 0.5000  plane waves:    1940
 k-point  81 :   0.0000 0.0000 0.5000  plane waves:    1940
 k-point  82 :   0.0263 0.0000 0.5000  plane waves:    1940
 k-point  83 :   0.0526 0.0000 0.5000  plane waves:    1948
 k-point  84 :   0.0789 0.0000 0.5000  plane waves:    1936
 k-point  85 :   0.1053 0.0000 0.5000  plane waves:    1926
 k-point  86 :   0.1316 0.0000 0.5000  plane waves:    1922
 k-point  87 :   0.1579 0.0000 0.5000  plane waves:    1926
 k-point  88 :   0.1842 0.0000 0.5000  plane waves:    1916
 k-point  89 :   0.2105 0.0000 0.5000  plane waves:    1920
 k-point  90 :   0.2368 0.0000 0.5000  plane waves:    1912
 k-point  91 :   0.2632 0.0000 0.5000  plane waves:    1908
 k-point  92 :   0.2895 0.0000 0.5000  plane waves:    1908
 k-point  93 :   0.3158 0.0000 0.5000  plane waves:    1902
 k-point  94 :   0.3421 0.0000 0.5000  plane waves:    1910
 k-point  95 :   0.3684 0.0000 0.5000  plane waves:    1908
 k-point  96 :   0.3947 0.0000 0.5000  plane waves:    1904
 k-point  97 :   0.4211 0.0000 0.5000  plane waves:    1908
 k-point  98 :   0.4474 0.0000 0.5000  plane waves:    1912
 k-point  99 :   0.4737 0.0000 0.5000  plane waves:    1900
 k-point 100 :   0.5000 0.0000 0.5000  plane waves:    1900
 k-point 101 :   0.5000 0.0000 0.5000  plane waves:    1900
 k-point 102 :   0.4912 0.0175 0.5000  plane waves:    1904
 k-point 103 :   0.4825 0.0351 0.5000  plane waves:    1904
 k-point 104 :   0.4737 0.0526 0.5000  plane waves:    1892
 k-point 105 :   0.4649 0.0702 0.5000  plane waves:    1900
 k-point 106 :   0.4561 0.0877 0.5000  plane waves:    1896
 k-point 107 :   0.4474 0.1053 0.5000  plane waves:    1896
 k-point 108 :   0.4386 0.1228 0.5000  plane waves:    1894
 k-point 109 :   0.4298 0.1404 0.5000  plane waves:    1900
 k-point 110 :   0.4211 0.1579 0.5000  plane waves:    1900
 k-point 111 :   0.4123 0.1754 0.5000  plane waves:    1900
 k-point 112 :   0.4035 0.1930 0.5000  plane waves:    1900
 k-point 113 :   0.3947 0.2105 0.5000  plane waves:    1900
 k-point 114 :   0.3860 0.2281 0.5000  plane waves:    1900
 k-point 115 :   0.3772 0.2456 0.5000  plane waves:    1904
 k-point 116 :   0.3684 0.2632 0.5000  plane waves:    1900
 k-point 117 :   0.3596 0.2807 0.5000  plane waves:    1906
 k-point 118 :   0.3509 0.2982 0.5000  plane waves:    1910
 k-point 119 :   0.3421 0.3158 0.5000  plane waves:    1918
 k-point 120 :   0.3333 0.3333 0.5000  plane waves:    1920
 k-point 121 :   0.3333 0.3333 0.5000  plane waves:    1920
 k-point 122 :   0.3158 0.3158 0.5000  plane waves:    1906
 k-point 123 :   0.2982 0.2982 0.5000  plane waves:    1906
 k-point 124 :   0.2807 0.2807 0.5000  plane waves:    1902
 k-point 125 :   0.2632 0.2632 0.5000  plane waves:    1916
 k-point 126 :   0.2456 0.2456 0.5000  plane waves:    1914
 k-point 127 :   0.2281 0.2281 0.5000  plane waves:    1918
 k-point 128 :   0.2105 0.2105 0.5000  plane waves:    1930
 k-point 129 :   0.1930 0.1930 0.5000  plane waves:    1922
 k-point 130 :   0.1754 0.1754 0.5000  plane waves:    1910
 k-point 131 :   0.1579 0.1579 0.5000  plane waves:    1910
 k-point 132 :   0.1404 0.1404 0.5000  plane waves:    1902
 k-point 133 :   0.1228 0.1228 0.5000  plane waves:    1906
 k-point 134 :   0.1053 0.1053 0.5000  plane waves:    1914
 k-point 135 :   0.0877 0.0877 0.5000  plane waves:    1926
 k-point 136 :   0.0702 0.0702 0.5000  plane waves:    1926
 k-point 137 :   0.0526 0.0526 0.5000  plane waves:    1934
 k-point 138 :   0.0351 0.0351 0.5000  plane waves:    1942
 k-point 139 :   0.0175 0.0175 0.5000  plane waves:    1940
 k-point 140 :  -0.0000-0.0000 0.5000  plane waves:    1940
 k-point 141 :   0.5000 0.0000 0.5000  plane waves:    1900
 k-point 142 :   0.5000 0.0000 0.4737  plane waves:    1904
 k-point 143 :   0.5000 0.0000 0.4474  plane waves:    1908
 k-point 144 :   0.5000 0.0000 0.4211  plane waves:    1906
 k-point 145 :   0.5000 0.0000 0.3947  plane waves:    1906
 k-point 146 :   0.5000 0.0000 0.3684  plane waves:    1900
 k-point 147 :   0.5000 0.0000 0.3421  plane waves:    1904
 k-point 148 :   0.5000 0.0000 0.3158  plane waves:    1908
 k-point 149 :   0.5000 0.0000 0.2895  plane waves:    1902
 k-point 150 :   0.5000 0.0000 0.2632  plane waves:    1902
 k-point 151 :   0.5000 0.0000 0.2368  plane waves:    1898
 k-point 152 :   0.5000 0.0000 0.2105  plane waves:    1902
 k-point 153 :   0.5000 0.0000 0.1842  plane waves:    1898
 k-point 154 :   0.5000 0.0000 0.1579  plane waves:    1898
 k-point 155 :   0.5000 0.0000 0.1316  plane waves:    1916
 k-point 156 :   0.5000 0.0000 0.1053  plane waves:    1914
 k-point 157 :   0.5000 0.0000 0.0789  plane waves:    1912
 k-point 158 :   0.5000 0.0000 0.0526  plane waves:    1914
 k-point 159 :   0.5000 0.0000 0.0263  plane waves:    1910
 k-point 160 :   0.5000 0.0000 0.0000  plane waves:    1916
 k-point 161 :   0.3333 0.3333 0.5000  plane waves:    1920
 k-point 162 :   0.3333 0.3333 0.4737  plane waves:    1905
 k-point 163 :   0.3333 0.3333 0.4474  plane waves:    1899
 k-point 164 :   0.3333 0.3333 0.4211  plane waves:    1902
 k-point 165 :   0.3333 0.3333 0.3947  plane waves:    1902
 k-point 166 :   0.3333 0.3333 0.3684  plane waves:    1914
 k-point 167 :   0.3333 0.3333 0.3421  plane waves:    1920
 k-point 168 :   0.3333 0.3333 0.3158  plane waves:    1914
 k-point 169 :   0.3333 0.3333 0.2895  plane waves:    1911
 k-point 170 :   0.3333 0.3333 0.2632  plane waves:    1911
 k-point 171 :   0.3333 0.3333 0.2368  plane waves:    1911
 k-point 172 :   0.3333 0.3333 0.2105  plane waves:    1899
 k-point 173 :   0.3333 0.3333 0.1842  plane waves:    1905
 k-point 174 :   0.3333 0.3333 0.1579  plane waves:    1896
 k-point 175 :   0.3333 0.3333 0.1316  plane waves:    1902
 k-point 176 :   0.3333 0.3333 0.1053  plane waves:    1893
 k-point 177 :   0.3333 0.3333 0.0789  plane waves:    1893
 k-point 178 :   0.3333 0.3333 0.0526  plane waves:    1890
 k-point 179 :   0.3333 0.3333 0.0263  plane waves:    1884
 k-point 180 :   0.3333 0.3333 0.0000  plane waves:    1884

 maximum and minimum number of plane-waves per node :      1948     1884

 maximum number of plane-waves:      1948
 maximum index in each direction: 
   IXMAX=    7   IYMAX=    7   IZMAX=    9
   IXMIN=   -7   IYMIN=   -7   IZMIN=  -10


 serial   3D FFT for wavefunctions
 parallel 3D FFT for charge:
    minimum data exchange during FFTs selected (reduces bandwidth)


 total amount of memory used by VASP MPI-rank0    74867. kBytes
=======================================================================

   base      :      30000. kBytes
   nonl-proj :      36635. kBytes
   fftplans  :        480. kBytes
   grid      :       1922. kBytes
   one-center:         24. kBytes
   wavefun   :       5806. kBytes

     INWAV:  cpu time      2.3479: real time      2.3481
 initial charge density was supplied:
 number of electron      18.0000000 magnetization 
 keeping initial charge density in first step


--------------------------------------------------------------------------------------------------------


 Maximum index for augmentation-charges          792 (set IRDMAX)


--------------------------------------------------------------------------------------------------------


 First call to EWALD:  gamma=   0.375
 Maximum number of real-space cells 3x 3x 2
 Maximum number of reciprocal cells 3x 3x 3

    FEWALD:  cpu time      0.0016: real time      0.0016


--------------------------------------- Iteration      1(   1)  ---------------------------------------


    POTLOK:  cpu time      0.0254: real time      0.0254
    SETDIJ:  cpu time      0.0070: real time      0.0070
     EDDAV:  cpu time     13.0096: real time     13.0108
       DOS:  cpu time      0.0035: real time      0.0035
    --------------------------------------------
      LOOP:  cpu time     13.0455: real time     13.0467

 eigenvalue-minimisations  : 17856
 total energy-change (2. order) :-0.8572094E+01  (-0.2000181E+02)
 number of electron      18.0000000 magnetization 
 augmentation part       18.0000000 magnetization 

 Free energy of the ion-electron system (eV)
  ---------------------------------------------------
  alpha Z        PSCENC =         2.22258433
  Ewald energy   TEWEN  =      -667.48475072
  -Hartree energ DENC   =       -45.47405661
  -exchange      EXHF   =         0.00000000
  -V(xc)+E(xc)   XCENC  =       -84.15214027
  PAW double counting   =       318.00898749     -202.63151919
  entropy T*S    EENTRO =        -0.00005703
  eigenvalues    EBANDS =         1.12589206
  atomic energy  EATOM  =       669.81296627
  Solvation  Ediel_sol  =         0.00000000
  ---------------------------------------------------
  free energy    TOTEN  =        -8.57209367 eV

  energy without entropy =       -8.57203664  energy(sigma->0) =       -8.57206515


--------------------------------------------------------------------------------------------------------




--------------------------------------- Iteration      1(   2)  ---------------------------------------


     EDDAV:  cpu time      8.0197: real time      8.0209
       DOS:  cpu time      0.0039: real time      0.0038
    --------------------------------------------
      LOOP:  cpu time      8.0236: real time      8.0247

 eigenvalue-minimisations  : 12864
 total energy-change (2. order) :-0.2248776E+00  (-0.2248776E+00)
 number of electron      18.0000000 magnetization 
 augmentation part       18.0000000 magnetization 

 Free energy of the ion-electron system (eV)
  ---------------------------------------------------
  alpha Z        PSCENC =         2.22258433
  Ewald energy   TEWEN  =      -667.48475072
  -Hartree energ DENC   =       -45.47405661
  -exchange      EXHF   =         0.00000000
  -V(xc)+E(xc)   XCENC  =       -84.15214027
  PAW double counting   =       318.00898749     -202.63151919
  entropy T*S    EENTRO =        -0.00005692
  eigenvalues    EBANDS =         0.90101435
  atomic energy  EATOM  =       669.81296627
  Solvation  Ediel_sol  =         0.00000000
  ---------------------------------------------------
  free energy    TOTEN  =        -8.79697127 eV

  energy without entropy =       -8.79691435  energy(sigma->0) =       -8.79694281


--------------------------------------------------------------------------------------------------------




--------------------------------------- Iteration      1(   3)  ---------------------------------------


     EDDAV:  cpu time     17.5836: real time     17.5854
       DOS:  cpu time      0.0042: real time      0.0042
    --------------------------------------------
      LOOP:  cpu time     17.5878: real time     17.5896

 eigenvalue-minimisations  : 21696
 total energy-change (2. order) :-0.1931697E-02  (-0.1931696E-02)
 number of electron      18.0000000 magnetization 
 augmentation part       18.0000000 magnetization 

 Free energy of the ion-electron system (eV)
  ---------------------------------------------------
  alpha Z        PSCENC =         2.22258433
  Ewald energy   TEWEN  =      -667.48475072
  -Hartree energ DENC   =       -45.47405661
  -exchange      EXHF   =         0.00000000
  -V(xc)+E(xc)   XCENC  =       -84.15214027
  PAW double counting   =       318.00898749     -202.63151919
  entropy T*S    EENTRO =        -0.00005692
  eigenvalues    EBANDS =         0.89908265
  atomic energy  EATOM  =       669.81296627
  Solvation  Ediel_sol  =         0.00000000
  ---------------------------------------------------
  free energy    TOTEN  =        -8.79890297 eV

  energy without entropy =       -8.79884605  energy(sigma->0) =       -8.79887451


--------------------------------------------------------------------------------------------------------




--------------------------------------- Iteration      1(   4)  ---------------------------------------


     EDDAV:  cpu time     12.1618: real time     12.1632
       DOS:  cpu time      0.0039: real time      0.0039
    --------------------------------------------
      LOOP:  cpu time     12.1657: real time     12.1671

 eigenvalue-minimisations  : 17184
 total energy-change (2. order) :-0.4601078E-06  (-0.4602359E-06)
 number of electron      18.0000000 magnetization 
 augmentation part       18.0000000 magnetization 

 Free energy of the ion-electron system (eV)
  ---------------------------------------------------
  alpha Z        PSCENC =         2.22258433
  Ewald energy   TEWEN  =      -667.48475072
  -Hartree energ DENC   =       -45.47405661
  -exchange      EXHF   =         0.00000000
  -V(xc)+E(xc)   XCENC  =       -84.15214027
  PAW double counting   =       318.00898749     -202.63151919
  entropy T*S    EENTRO =        -0.00005692
  eigenvalues    EBANDS =         0.89908219
  atomic energy  EATOM  =       669.81296627
  Solvation  Ediel_sol  =         0.00000000
  ---------------------------------------------------
  free energy    TOTEN  =        -8.79890343 eV

  energy without entropy =       -8.79884651  energy(sigma->0) =       -8.79887497


--------------------------------------------------------------------------------------------------------




--------------------------------------- Iteration      1(   5)  ---------------------------------------


     EDDAV:  cpu time     16.9872: real time     16.9886
       DOS:  cpu time      0.0038: real time      0.0038
    --------------------------------------------
      LOOP:  cpu time     16.9910: real time     16.9924

 eigenvalue-minimisations  : 21472
 total energy-change (2. order) :-0.6466507E-09  (-0.9586330E-09)
 number of electron      18.0000000 magnetization 
 augmentation part       18.0000000 magnetization 

 Free energy of the ion-electron system (eV)
  ---------------------------------------------------
  alpha Z        PSCENC =         2.22258433
  Ewald energy   TEWEN  =      -667.48475072
  -Hartree energ DENC   =       -45.47405661
  -exchange      EXHF   =         0.00000000
  -V(xc)+E(xc)   XCENC  =       -84.15214027
  PAW double counting   =       318.00898749     -202.63151919
  entropy T*S    EENTRO =        -0.00005692
  eigenvalues    EBANDS =         0.89908219
  atomic energy  EATOM  =       669.81296627
  Solvation  Ediel_sol  =         0.00000000
  ---------------------------------------------------
  free energy    TOTEN  =        -8.79890343 eV

  energy without entropy =       -8.79884651  energy(sigma->0) =       -8.79887497


--------------------------------------------------------------------------------------------------------




 average (electrostatic) potential at core
  the test charge radii are     1.1897
  (the norm of the test charge is              1.0000)
       1 -89.3752       2 -89.3752       3 -89.3753



 E-fermi :   5.6516     XC(G=0):  -8.9278     alpha+bet :-10.2249

 Fermi energy:         5.6516224007

 k-point     1 :       0.0000    0.0000    0.0000
  band No.  band energies     occupation 
      1      -7.8359      2.00000
      2      -4.6715      2.00000
      3      -4.6715      2.00000
      4       2.5723      2.00000
      5       2.8333      2.00000
      6       2.8333      2.00000
      7       3.9335      2.00000
      8       3.9335      2.00000
      9       4.7424      2.00000
     10       6.5295      0.00000
     11       6.5295      0.00000
     12       7.0926      0.00000
     13      10.5848      0.00000
     14      10.5848      0.00000
     15      11.4447      0.00000
     16      11.8550      0.00000
     17      11.8551      0.00000
     18      12.1047      0.00000
     19      12.1385      0.00000
     20      13.0484      0.00000
     21      13.0484      0.00000
     22      15.9089      0.00000
     23      15.9089      0.00000
     24      20.4494      0.00000
     25      20.4494      0.00000
     26      20.5415      0.00000
     27      21.1415      0.00000
     28      22.0175      0.00000
     29      22.0175      0.00000
     30      22.7530      0.00000
     31      22.7751      0.00000
     32      23.0928      0.00000

 k-point     2 :       0.0263    0.0000    0.0000
  band No.  band energies     occupation 
      1      -7.8314      2.00000
      2      -4.6729      2.00000
      3      -4.6705      2.00000
      4       2.5255      2.00000
      5       2.7961      2.00000
      6       2.8270      2.00000
      7       3.9516      2.00000
      8       3.9881      2.00000
      9       4.7552      2.00000
     10       6.5082      0.00000
     11       6.5256      0.00000
     12       7.0830      0.00000
     13      10.5776      0.00000
     14      10.5799      0.00000
     15      11.4653      0.00000
     16      11.8479      0.00000
     17      11.8620      0.00000
     18      12.0914      0.00000
     19      12.1673      0.00000
     20      13.0966      0.00000
     21      13.1053      0.00000
     22      15.9268      0.00000
     23      15.9281      0.00000
     24      20.2855      0.00000
     25      20.3573      0.00000
     26      20.6635      0.00000
     27      21.1984      0.00000
     28      21.9740      0.00000
     29      21.9836      0.00000
     30      22.6964      0.00000
     31      22.7599      0.00000
     32      22.9628      0.00000

 k-point     3 :       0.0526    0.0000    0.0000
  band No.  band energies     occupation 
      1      -7.8180      2.00000
      2      -4.6772      2.00000
      3      -4.6674      2.00000
      4       2.3995      2.00000
      5       2.7065      2.00000
      6       2.8038      2.00000
      7       4.0015      2.00000
      8       4.1219      2.00000
      9       4.7919      2.00000
     10       6.4480      0.00000
     11       6.5144      0.00000
     12       7.0579      0.00000
     13      10.5492      0.00000
     14      10.5662      0.00000
     15      11.5198      0.00000
     16      11.8414      0.00000
     17      11.8786      0.00000
     18      12.0828      0.00000
     19      12.2524      0.00000
     20      13.2299      0.00000
     21      13.2543      0.00000
     22      15.9786      0.00000
     23      15.9878      0.00000
     24      20.0492      0.00000
     25      20.1532      0.00000
     26      20.7639      0.00000
     27      21.2911      0.00000
     28      21.8514      0.00000
     29      21.9151      0.00000
     30      22.4846      0.00000
     31      22.7618      0.00000
     32      22.8260      0.00000

 k-point     4 :       0.0789    0.0000    0.0000
  band No.  band energies     occupation 
      1      -7.7957      2.00000
      2      -4.6847      2.00000
      3      -4.6624      2.00000
      4       2.2249      2.00000
      5       2.5941      2.00000
      6       2.7609      2.00000
      7       4.0729      2.00000
      8       4.2825      2.00000
      9       4.8466      2.00000
     10       6.3630      0.00000
     11       6.4975      0.00000
     12       7.0254      0.00000
     13      10.4831      0.00000
     14      10.5504      0.00000
     15      11.5813      0.00000
     16      11.8579      0.00000
     17      11.9208      0.00000
     18      12.1289      0.00000
     19      12.3877      0.00000
     20      13.4192      0.00000
     21      13.4649      0.00000
     22      16.0615      0.00000
     23      16.0914      0.00000
     24      19.7778      0.00000
     25      19.9182      0.00000
     26      20.7879      0.00000
     27      21.3093      0.00000
     28      21.6835      0.00000
     29      21.8598      0.00000
     30      22.2411      0.00000
     31      22.6121      0.00000
     32      22.8242      0.00000

 k-point     5 :       0.1053    0.0000    0.0000
  band No.  band energies     occupation 
      1      -7.7648      2.00000
      2      -4.6962      2.00000
      3      -4.6553      2.00000
      4       2.0299      2.00000
      5       2.4713      2.00000
      6       2.7012      2.00000
      7       4.1548      2.00000
      8       4.4310      2.00000
      9       4.9015      2.00000
     10       6.2824      0.00000
     11       6.4773      0.00000
     12       6.9927      0.00000
     13      10.3720      0.00000
     14      10.5409      0.00000
     15      11.6241      0.00000
     16      11.8883      0.00000
     17      12.0460      0.00000
     18      12.2411      0.00000
     19      12.5635      0.00000
     20      13.6300      0.00000
     21      13.7276      0.00000
     22      16.1730      0.00000
     23      16.2407      0.00000
     24      19.4827      0.00000
     25      19.6802      0.00000
     26      20.7250      0.00000
     27      21.2020      0.00000
     28      21.4960      0.00000
     29      21.7717      0.00000
     30      22.0342      0.00000
     31      22.4074      0.00000
     32      22.8047      0.00000

 k-point     6 :       0.1316    0.0000    0.0000
  band No.  band energies     occupation 
      1      -7.7255      2.00000
      2      -4.7124      2.00000
      3      -4.6464      2.00000
      4       1.8330      2.00000
      5       2.3438      2.00000
      6       2.6296      2.00000
      7       4.2376      2.00000
      8       4.5491      2.00000
      9       4.9188      2.00000
     10       6.2496      0.00000
     11       6.4567      0.00000
     12       6.9660      0.00000
     13      10.2240      0.00000
     14      10.5458      0.00000
     15      11.6549      0.00000
     16      11.9569      0.00000
     17      12.2255      0.00000
     18      12.4162      0.00000
     19      12.7720      0.00000
     20      13.8421      0.00000
     21      14.0362      0.00000
     22      16.3106      0.00000
     23      16.4346      0.00000
     24      19.1796      0.00000
     25      19.4447      0.00000
     26      20.5768      0.00000
     27      20.9976      0.00000
     28      21.2895      0.00000
     29      21.5308      0.00000
     30      21.8640      0.00000
     31      22.2332      0.00000
     32      22.7871      0.00000

 k-point     7 :       0.1579    0.0000    0.0000
  band No.  band energies     occupation 
      1      -7.6780      2.00000
      2      -4.7343      2.00000
      3      -4.6357      2.00000
      4       1.6448      2.00000
      5       2.2152      2.00000
      6       2.5508      2.00000
      7       4.3125      2.00000
      8       4.6352      2.00000
      9       4.8606      2.00000
     10       6.2942      0.00000
     11       6.4404      0.00000
     12       6.9541      0.00000
     13      10.0540      0.00000
     14      10.5713      0.00000
     15      11.6908      0.00000
     16      12.0709      0.00000
     17      12.4217      0.00000
     18      12.6504      0.00000
     19      13.0073      0.00000
     20      14.0491      0.00000
     21      14.3833      0.00000
     22      16.4713      0.00000
     23      16.6663      0.00000
     24      18.8842      0.00000
     25      19.2149      0.00000
     26      20.3479      0.00000
     27      20.7154      0.00000
     28      21.0517      0.00000
     29      21.2365      0.00000
     30      21.6404      0.00000
     31      22.0905      0.00000
     32      22.8585      0.00000

 k-point     8 :       0.1842    0.0000    0.0000
  band No.  band energies     occupation 
      1      -7.6228      2.00000
      2      -4.7626      2.00000
      3      -4.6236      2.00000
      4       1.4720      2.00000
      5       2.0884      2.00000
      6       2.4688      2.00000
      7       4.3662      2.00000
      8       4.6936      2.00000
      9       4.7334      2.00000
     10       6.3750      0.00000
     11       6.4511      0.00000
     12       6.9759      0.00000
     13       9.8749      0.00000
     14      10.6224      0.00000
     15      11.7452      0.00000
     16      12.2211      0.00000
     17      12.6276      0.00000
     18      12.9270      0.00000
     19      13.2651      0.00000
     20      14.2500      0.00000
     21      14.7618      0.00000
     22      16.6503      0.00000
     23      16.9177      0.00000
     24      18.6175      0.00000
     25      18.9960      0.00000
     26      20.0416      0.00000
     27      20.3565      0.00000
     28      20.7689      0.00000
     29      20.9809      0.00000
     30      21.4257      0.00000
     31      21.9357      0.00000
     32      22.9962      0.00000

 k-point     9 :       0.2105    0.0000    0.0000
  band No.  band energies     occupation 
      1      -7.5606      2.00000
      2      -4.7983      2.00000
      3      -4.6101      2.00000
      4       1.3188      2.00000
      5       1.9658      2.00000
      6       2.3870      2.00000
      7       4.3496      2.00000
      8       4.6042      2.00000
      9       4.7353      2.00000
     10       6.3888      0.00000
     11       6.5267      0.00000
     12       7.0677      0.00000
     13       9.6957      0.00000
     14      10.7024      0.00000
     15      11.8255      0.00000
     16      12.3980      0.00000
     17      12.8454      0.00000
     18      13.2281      0.00000
     19      13.5421      0.00000
     20      14.4477      0.00000
     21      15.1637      0.00000
     22      16.8393      0.00000
     23      17.1459      0.00000
     24      18.4221      0.00000
     25      18.7965      0.00000
     26      19.6657      0.00000
     27      19.9439      0.00000
     28      20.4696      0.00000
     29      20.7695      0.00000
     30      21.2389      0.00000
     31      21.7779      0.00000
     32      23.1021      0.00000

 k-point    10 :       0.2368    0.0000    0.0000
  band No.  band energies     occupation 
      1      -7.4919      2.00000
      2      -4.8417      2.00000
      3      -4.5956      2.00000
      4       1.1880      2.00000
      5       1.8494      2.00000
      6       2.3077      2.00000
      7       4.1871      2.00000
      8       4.5796      2.00000
      9       4.7584      2.00000
     10       6.3842      0.00000
     11       6.5714      0.00000
     12       7.2484      0.00000
     13       9.5227      0.00000
     14      10.8133      0.00000
     15      11.9351      0.00000
     16      12.5943      0.00000
     17      13.0743      0.00000
     18      13.5430      0.00000
     19      13.8352      0.00000
     20      14.6466      0.00000
     21      15.5772      0.00000
     22      17.0213      0.00000
     23      17.2653      0.00000
     24      18.3829      0.00000
     25      18.6304      0.00000
     26      19.2396      0.00000
     27      19.5145      0.00000
     28      20.1834      0.00000
     29      20.5723      0.00000
     30      21.0705      0.00000
     31      21.6216      0.00000
     32      22.9403      0.00000

 k-point    11 :       0.2632    0.0000    0.0000
  band No.  band energies     occupation 
      1      -7.4176      2.00000
      2      -4.8931      2.00000
      3      -4.5806      2.00000
      4       1.0812      2.00000
      5       1.7407      2.00000
      6       2.2333      2.00000
      7       3.9547      2.00000
      8       4.5972      2.00000
      9       4.7697      2.00000
     10       6.3807      0.00000
     11       6.5772      0.00000
     12       7.4874      0.00000
     13       9.3599      0.00000
     14      10.9555      0.00000
     15      12.0751      0.00000
     16      12.8045      0.00000
     17      13.3101      0.00000
     18      13.8655      0.00000
     19      14.1409      0.00000
     20      14.8518      0.00000
     21      15.9775      0.00000
     22      17.1476      0.00000
     23      17.2509      0.00000
     24      18.5091      0.00000
     25      18.5422      0.00000
     26      18.7875      0.00000
     27      19.1232      0.00000
     28      19.9115      0.00000
     29      20.3743      0.00000
     30      20.9095      0.00000
     31      21.4589      0.00000
     32      22.5541      0.00000

 k-point    12 :       0.2895    0.0000    0.0000
  band No.  band energies     occupation 
      1      -7.3390      2.00000
      2      -4.9520      2.00000
      3      -4.5654      2.00000
      4       0.9990      2.00000
      5       1.6413      2.00000
      6       2.1655      2.00000
      7       3.7059      2.00000
      8       4.6139      2.00000
      9       4.7735      2.00000
     10       6.3793      0.00000
     11       6.5649      0.00000
     12       7.7496      0.00000
     13       9.2099      0.00000
     14      11.1283      0.00000
     15      12.2455      0.00000
     16      13.0238      0.00000
     17      13.5466      0.00000
     18      14.1909      0.00000
     19      14.4552      0.00000
     20      15.0684      0.00000
     21      16.2974      0.00000
     22      17.1139      0.00000
     23      17.2846      0.00000
     24      18.3245      0.00000
     25      18.4017      0.00000
     26      18.6905      0.00000
     27      19.0002      0.00000
     28      19.6502      0.00000
     29      20.1720      0.00000
     30      20.7467      0.00000
     31      21.2678      0.00000
     32      22.1792      0.00000

 k-point    13 :       0.3158    0.0000    0.0000
  band No.  band energies     occupation 
      1      -7.2575      2.00000
      2      -5.0172      2.00000
      3      -4.5504      2.00000
      4       0.9406      2.00000
      5       1.5526      2.00000
      6       2.1061      2.00000
      7       3.4564      2.00000
      8       4.6219      2.00000
      9       4.7735      2.00000
     10       6.3796      0.00000
     11       6.5456      0.00000
     12       8.0144      0.00000
     13       9.0746      0.00000
     14      11.3297      0.00000
     15      12.4452      0.00000
     16      13.2480      0.00000
     17      13.7745      0.00000
     18      14.5141      0.00000
     19      14.7724      0.00000
     20      15.3007      0.00000
     21      16.3962      0.00000
     22      17.1380      0.00000
     23      17.2737      0.00000
     24      17.8766      0.00000
     25      18.2188      0.00000
     26      18.7749      0.00000
     27      19.2445      0.00000
     28      19.4091      0.00000
     29      19.9845      0.00000
     30      20.5737      0.00000
     31      21.0210      0.00000
     32      21.8913      0.00000

 k-point    14 :       0.3421    0.0000    0.0000
  band No.  band energies     occupation 
      1      -7.1750      2.00000
      2      -5.0869      2.00000
      3      -4.5362      2.00000
      4       0.9044      2.00000
      5       1.4761      2.00000
      6       2.0569      2.00000
      7       3.2139      2.00000
      8       4.6207      2.00000
      9       4.7723      2.00000
     10       6.3808      0.00000
     11       6.5245      0.00000
     12       8.2691      0.00000
     13       8.9554      0.00000
     14      11.5564      0.00000
     15      12.6725      0.00000
     16      13.4734      0.00000
     17      13.9813      0.00000
     18      14.8251      0.00000
     19      15.0861      0.00000
     20      15.5505      0.00000
     21      16.2927      0.00000
     22      17.1221      0.00000
     23      17.1691      0.00000
     24      17.4771      0.00000
     25      18.2435      0.00000
     26      18.8749      0.00000
     27      19.2672      0.00000
     28      19.3727      0.00000
     29      19.9138      0.00000
     30      20.3864      0.00000
     31      20.7483      0.00000
     32      21.7063      0.00000

 k-point    15 :       0.3684    0.0000    0.0000
  band No.  band energies     occupation 
      1      -7.0941      2.00000
      2      -5.1584      2.00000
      3      -4.5231      2.00000
      4       0.8869      2.00000
      5       1.4131      2.00000
      6       2.0200      2.00000
      7       2.9833      2.00000
      8       4.6128      2.00000
      9       4.7711      2.00000
     10       6.3825      0.00000
     11       6.5040      0.00000
     12       8.5041      0.00000
     13       8.8534      0.00000
     14      11.8031      0.00000
     15      12.9252      0.00000
     16      13.6964      0.00000
     17      14.1502      0.00000
     18      15.0979      0.00000
     19      15.3919      0.00000
     20      15.8088      0.00000
     21      16.1433      0.00000
     22      16.8452      0.00000
     23      16.9807      0.00000
     24      17.2794      0.00000
     25      18.5271      0.00000
     26      18.7255      0.00000
     27      19.2146      0.00000
     28      19.4421      0.00000
     29      19.8930      0.00000
     30      20.1575      0.00000
     31      20.6650      0.00000
     32      21.5912      0.00000

 k-point    16 :       0.3947    0.0000    0.0000
  band No.  band energies     occupation 
      1      -7.0180      2.00000
      2      -5.2279      2.00000
      3      -4.5118      2.00000
      4       0.8838      2.00000
      5       1.3647      2.00000
      6       1.9977      2.00000
      7       2.7690      2.00000
      8       4.6014      2.00000
      9       4.7700      2.00000
     10       6.3842      0.00000
     11       6.4855      0.00000
     12       8.7099      0.00000
     13       8.7702      0.00000
     14      12.0623      0.00000
     15      13.2002      0.00000
     16      13.9136      0.00000
     17      14.2627      0.00000
     18      15.2709      0.00000
     19      15.6828      0.00000
     20      15.9751      0.00000
     21      16.0784      0.00000
     22      16.5531      0.00000
     23      16.7408      0.00000
     24      17.2685      0.00000
     25      18.4559      0.00000
     26      18.7565      0.00000
     27      19.1228      0.00000
     28      19.4987      0.00000
     29      19.8153      0.00000
     30      19.9703      0.00000
     31      20.8391      0.00000
     32      21.4903      0.00000

 k-point    17 :       0.4211    0.0000    0.0000
  band No.  band energies     occupation 
      1      -6.9508      2.00000
      2      -5.2907      2.00000
      3      -4.5025      2.00000
      4       0.8892      2.00000
      5       1.3314      2.00000
      6       1.9935      2.00000
      7       2.5753      2.00000
      8       4.5896      2.00000
      9       4.7690      2.00000
     10       6.3859      0.00000
     11       6.4700      0.00000
     12       8.7021      0.00000
     13       8.8832      0.00000
     14      12.3221      0.00000
     15      13.4920      0.00000
     16      14.1202      0.00000
     17      14.3064      0.00000
     18      15.2771      0.00000
     19      15.7519      0.00000
     20      16.0442      0.00000
     21      16.0798      0.00000
     22      16.5098      0.00000
     23      16.6940      0.00000
     24      17.3401      0.00000
     25      18.1843      0.00000
     26      18.5285      0.00000
     27      19.1525      0.00000
     28      19.4223      0.00000
     29      19.6044      0.00000
     30      20.2942      0.00000
     31      20.9979      0.00000
     32      21.3713      0.00000

 k-point    18 :       0.4474    0.0000    0.0000
  band No.  band energies     occupation 
      1      -6.8974      2.00000
      2      -5.3416      2.00000
      3      -4.4955      2.00000
      4       0.8973      2.00000
      5       1.3122      2.00000
      6       2.0107      2.00000
      7       2.4070      2.00000
      8       4.5797      2.00000
      9       4.7680      2.00000
     10       6.3874      0.00000
     11       6.4581      0.00000
     12       8.6548      0.00000
     13       9.0115      0.00000
     14      12.5617      0.00000
     15      13.7869      0.00000
     16      14.2769      0.00000
     17      14.3233      0.00000
     18      15.1562      0.00000
     19      15.4805      0.00000
     20      15.9568      0.00000
     21      16.3488      0.00000
     22      16.6179      0.00000
     23      16.9022      0.00000
     24      17.4762      0.00000
     25      17.9290      0.00000
     26      18.2314      0.00000
     27      18.7805      0.00000
     28      19.2153      0.00000
     29      19.9018      0.00000
     30      20.6686      0.00000
     31      21.0672      0.00000
     32      21.2983      0.00000

 k-point    19 :       0.4737    0.0000    0.0000
  band No.  band energies     occupation 
      1      -6.8626      2.00000
      2      -5.3750      2.00000
      3      -4.4913      2.00000
      4       0.9037      2.00000
      5       1.3035      2.00000
      6       2.0511      2.00000
      7       2.2712      2.00000
      8       4.5732      2.00000
      9       4.7674      2.00000
     10       6.3885      0.00000
     11       6.4506      0.00000
     12       8.6263      0.00000
     13       9.0912      0.00000
     14      12.7444      0.00000
     15      14.0200      0.00000
     16      14.2908      0.00000
     17      14.4651      0.00000
     18      14.9741      0.00000
     19      15.2194      0.00000
     20      15.8735      0.00000
     21      16.6017      0.00000
     22      16.7862      0.00000
     23      17.1109      0.00000
     24      17.5734      0.00000
     25      17.8202      0.00000
     26      17.9784      0.00000
     27      18.4092      0.00000
     28      18.9946      0.00000
     29      20.1876      0.00000
     30      20.9219      0.00000
     31      21.0804      0.00000
     32      21.3540      0.00000

 k-point    20 :       0.5000    0.0000    0.0000
  band No.  band energies     occupation 
      1      -6.8505      2.00000
      2      -5.3866      2.00000
      3      -4.4898      2.00000
      4       0.9061      2.00000
      5       1.3013      2.00000
      6       2.0894      2.00000
      7       2.2003      2.00000
      8       4.5709      2.00000
      9       4.7671      2.00000
     10       6.3889      0.00000
     11       6.4480      0.00000
     12       8.6168      0.00000
     13       9.1182      0.00000
     14      12.8160      0.00000
     15      14.0697      0.00000
     16      14.3914      0.00000
     17      14.5147      0.00000
     18      14.8420      0.00000
     19      15.1163      0.00000
     20      15.8424      0.00000
     21      16.7166      0.00000
     22      16.8814      0.00000
     23      17.1841      0.00000
     24      17.5254      0.00000
     25      17.8656      0.00000
     26      17.9924      0.00000
     27      18.1341      0.00000
     28      18.9051      0.00000
     29      20.2976      0.00000
     30      20.9747      0.00000
     31      21.0798      0.00000
     32      21.4253      0.00000

 k-point    21 :       0.5000    0.0000    0.0000
  band No.  band energies     occupation 
      1      -6.8505      2.00000
      2      -5.3866      2.00000
      3      -4.4898      2.00000
      4       0.9061      2.00000
      5       1.3013      2.00000
      6       2.0894      2.00000
      7       2.2003      2.00000
      8       4.5709      2.00000
      9       4.7671      2.00000
     10       6.3889      0.00000
     11       6.4480      0.00000
     12       8.6168      0.00000
     13       9.1182      0.00000
     14      12.8160      0.00000
     15      14.0697      0.00000
     16      14.3914      0.00000
     17      14.5147      0.00000
     18      14.8420      0.00000
     19      15.1163      0.00000
     20      15.8424      0.00000
     21      16.7166      0.00000
     22      16.8814      0.00000
     23      17.1841      0.00000
     24      17.5254      0.00000
     25      17.8656      0.00000
     26      17.9924      0.00000
     27      18.1341      0.00000
     28      18.9051      0.00000
     29      20.2976      0.00000
     30      20.9747      0.00000
     31      21.0797      0.00000
     32      21.4248      0.00000

 k-point    22 :       0.4912    0.0175    0.0000
  band No.  band energies     occupation 
      1      -6.8496      2.00000
      2      -5.3855      2.00000
      3      -4.4921      2.00000
      4       0.9077      2.00000
      5       1.3005      2.00000
      6       2.0912      2.00000
      7       2.2018      2.00000
      8       4.5560      2.00000
      9       4.7466      2.00000
     10       6.4039      0.00000
     11       6.4701      0.00000
     12       8.6262      0.00000
     13       9.1160      0.00000
     14      12.7978      0.00000
     15      14.0273      0.00000
     16      14.3971      0.00000
     17      14.5196      0.00000
     18      14.8505      0.00000
     19      15.1473      0.00000
     20      15.8426      0.00000
     21      16.7031      0.00000
     22      16.8568      0.00000
     23      17.1973      0.00000
     24      17.5492      0.00000
     25      17.8747      0.00000
     26      17.9925      0.00000
     27      18.1431      0.00000
     28      18.9166      0.00000
     29      20.2763      0.00000
     30      20.9097      0.00000
     31      21.0789      0.00000
     32      21.4901      0.00000

 k-point    23 :       0.4825    0.0351    0.0000
  band No.  band energies     occupation 
      1      -6.8470      2.00000
      2      -5.3822      2.00000
      3      -4.4988      2.00000
      4       0.9124      2.00000
      5       1.2983      2.00000
      6       2.0966      2.00000
      7       2.2063      2.00000
      8       4.5127      2.00000
      9       4.6881      2.00000
     10       6.4474      0.00000
     11       6.5333      0.00000
     12       8.6542      0.00000
     13       9.1094      0.00000
     14      12.7455      0.00000
     15      13.9203      0.00000
     16      14.4110      0.00000
     17      14.5207      0.00000
     18      14.8760      0.00000
     19      15.2334      0.00000
     20      15.8439      0.00000
     21      16.6705      0.00000
     22      16.7948      0.00000
     23      17.2275      0.00000
     24      17.6054      0.00000
     25      17.9035      0.00000
     26      17.9977      0.00000
     27      18.1701      0.00000
     28      18.9498      0.00000
     29      20.2156      0.00000
     30      20.7723      0.00000
     31      21.0801      0.00000
     32      21.6266      0.00000

 k-point    24 :       0.4737    0.0526    0.0000
  band No.  band energies     occupation 
      1      -6.8427      2.00000
      2      -5.3766      2.00000
      3      -4.5099      2.00000
      4       0.9203      2.00000
      5       1.2947      2.00000
      6       2.1056      2.00000
      7       2.2138      2.00000
      8       4.4449      2.00000
      9       4.5996      2.00000
     10       6.5159      0.00000
     11       6.6295      0.00000
     12       8.7002      0.00000
     13       9.0984      0.00000
     14      12.6652      0.00000
     15      13.7791      0.00000
     16      14.4258      0.00000
     17      14.5041      0.00000
     18      14.9174      0.00000
     19      15.3575      0.00000
     20      15.8481      0.00000
     21      16.6342      0.00000
     22      16.7157      0.00000
     23      17.2578      0.00000
     24      17.6618      0.00000
     25      17.9531      0.00000
     26      18.0234      0.00000
     27      18.2161      0.00000
     28      19.0013      0.00000
     29      20.1238      0.00000
     30      20.6155      0.00000
     31      21.0891      0.00000
     32      21.7819      0.00000

 k-point    25 :       0.4649    0.0702    0.0000
  band No.  band energies     occupation 
      1      -6.8367      2.00000
      2      -5.3688      2.00000
      3      -4.5253      2.00000
      4       0.9312      2.00000
      5       1.2901      2.00000
      6       2.1180      2.00000
      7       2.2243      2.00000
      8       4.3574      2.00000
      9       4.4897      2.00000
     10       6.6046      0.00000
     11       6.7499      0.00000
     12       8.7633      0.00000
     13       9.0831      0.00000
     14      12.5638      0.00000
     15      13.6217      0.00000
     16      14.4349      0.00000
     17      14.4689      0.00000
     18      14.9696      0.00000
     19      15.5011      0.00000
     20      15.8580      0.00000
     21      16.6071      0.00000
     22      16.6352      0.00000
     23      17.2777      0.00000
     24      17.6922      0.00000
     25      18.0186      0.00000
     26      18.0851      0.00000
     27      18.2847      0.00000
     28      19.0666      0.00000
     29      20.0113      0.00000
     30      20.4576      0.00000
     31      21.1085      0.00000
     32      21.9218      0.00000

 k-point    26 :       0.4561    0.0877    0.0000
  band No.  band energies     occupation 
      1      -6.8291      2.00000
      2      -5.3589      2.00000
      3      -4.5448      2.00000
      4       0.9450      2.00000
      5       1.2847      2.00000
      6       2.1338      2.00000
      7       2.2377      2.00000
      8       4.2552      2.00000
      9       4.3660      2.00000
     10       6.7092      0.00000
     11       6.8866      0.00000
     12       8.8423      0.00000
     13       9.0635      0.00000
     14      12.4481      0.00000
     15      13.4569      0.00000
     16      14.4189      0.00000
     17      14.4350      0.00000
     18      15.0233      0.00000
     19      15.6484      0.00000
     20      15.8768      0.00000
     21      16.5640      0.00000
     22      16.5992      0.00000
     23      17.2856      0.00000
     24      17.6948      0.00000
     25      18.0879      0.00000
     26      18.1792      0.00000
     27      18.3812      0.00000
     28      19.1406      0.00000
     29      19.8883      0.00000
     30      20.3074      0.00000
     31      21.1376      0.00000
     32      22.0145      0.00000

 k-point    27 :       0.4474    0.1053    0.0000
  band No.  band energies     occupation 
      1      -6.8200      2.00000
      2      -5.3468      2.00000
      3      -4.5682      2.00000
      4       0.9616      2.00000
      5       1.2788      2.00000
      6       2.1529      2.00000
      7       2.2539      2.00000
      8       4.1422      2.00000
      9       4.2342      2.00000
     10       6.8259      0.00000
     11       7.0334      0.00000
     12       8.9357      0.00000
     13       9.0397      0.00000
     14      12.3232      0.00000
     15      13.2893      0.00000
     16      14.3582      0.00000
     17      14.4256      0.00000
     18      15.0673      0.00000
     19      15.7854      0.00000
     20      15.9060      0.00000
     21      16.5116      0.00000
     22      16.6198      0.00000
     23      17.2851      0.00000
     24      17.6833      0.00000
     25      18.1505      0.00000
     26      18.2886      0.00000
     27      18.5060      0.00000
     28      19.2165      0.00000
     29      19.7644      0.00000
     30      20.1734      0.00000
     31      21.1744      0.00000
     32      22.0790      0.00000

 k-point    28 :       0.4386    0.1228    0.0000
  band No.  band energies     occupation 
      1      -6.8097      2.00000
      2      -5.3327      2.00000
      3      -4.5952      2.00000
      4       0.9808      2.00000
      5       1.2728      2.00000
      6       2.1752      2.00000
      7       2.2729      2.00000
      8       4.0220      2.00000
      9       4.0985      2.00000
     10       6.9515      0.00000
     11       7.1857      0.00000
     12       9.0117      0.00000
     13       9.0419      0.00000
     14      12.1935      0.00000
     15      13.1216      0.00000
     16      14.2908      0.00000
     17      14.4076      0.00000
     18      15.0926      0.00000
     19      15.9002      0.00000
     20      15.9411      0.00000
     21      16.4892      0.00000
     22      16.6767      0.00000
     23      17.2815      0.00000
     24      17.6687      0.00000
     25      18.2029      0.00000
     26      18.3992      0.00000
     27      18.6506      0.00000
     28      19.2841      0.00000
     29      19.6500      0.00000
     30      20.0682      0.00000
     31      21.2165      0.00000
     32      22.0985      0.00000

 k-point    29 :       0.4298    0.1404    0.0000
  band No.  band energies     occupation 
      1      -6.7981      2.00000
      2      -5.3166      2.00000
      3      -4.6256      2.00000
      4       1.0023      2.00000
      5       1.2670      2.00000
      6       2.2005      2.00000
      7       2.2946      2.00000
      8       3.8973      2.00000
      9       3.9621      2.00000
     10       7.0833      0.00000
     11       7.3396      0.00000
     12       8.9798      0.00000
     13       9.1591      0.00000
     14      12.0619      0.00000
     15      12.9553      0.00000
     16      14.2201      0.00000
     17      14.3825      0.00000
     18      15.0955      0.00000
     19      15.9716      0.00000
     20      15.9859      0.00000
     21      16.5089      0.00000
     22      16.7713      0.00000
     23      17.2803      0.00000
     24      17.6576      0.00000
     25      18.2448      0.00000
     26      18.5001      0.00000
     27      18.7984      0.00000
     28      19.3287      0.00000
     29      19.5603      0.00000
     30      20.0099      0.00000
     31      21.2615      0.00000
     32      22.0701      0.00000

 k-point    30 :       0.4211    0.1579    0.0000
  band No.  band energies     occupation 
      1      -6.7856      2.00000
      2      -5.2986      2.00000
      3      -4.6589      2.00000
      4       1.0260      2.00000
      5       1.2617      2.00000
      6       2.2288      2.00000
      7       2.3187      2.00000
      8       3.7701      2.00000
      9       3.8274      2.00000
     10       7.2193      0.00000
     11       7.4921      0.00000
     12       8.9441      0.00000
     13       9.2855      0.00000
     14      11.9312      0.00000
     15      12.7914      0.00000
     16      14.1495      0.00000
     17      14.3518      0.00000
     18      15.0768      0.00000
     19      15.9893      0.00000
     20      16.0452      0.00000
     21      16.5755      0.00000
     22      16.8928      0.00000
     23      17.2890      0.00000
     24      17.6538      0.00000
     25      18.2749      0.00000
     26      18.5811      0.00000
     27      18.9230      0.00000
     28      19.3403      0.00000
     29      19.5226      0.00000
     30      20.0142      0.00000
     31      21.3073      0.00000
     32      21.9723      0.00000

 k-point    31 :       0.4123    0.1754    0.0000
  band No.  band energies     occupation 
      1      -6.7724      2.00000
      2      -5.2788      2.00000
      3      -4.6948      2.00000
      4       1.0513      2.00000
      5       1.2571      2.00000
      6       2.2599      2.00000
      7       2.3452      2.00000
      8       3.6423      2.00000
      9       3.6965      2.00000
     10       7.3572      0.00000
     11       7.6406      0.00000
     12       8.9048      0.00000
     13       9.4194      0.00000
     14      11.8033      0.00000
     15      12.6305      0.00000
     16      14.0820      0.00000
     17      14.3173      0.00000
     18      15.0397      0.00000
     19      15.9963      0.00000
     20      16.0861      0.00000
     21      16.6806      0.00000
     22      17.0166      0.00000
     23      17.3215      0.00000
     24      17.6601      0.00000
     25      18.2909      0.00000
     26      18.6301      0.00000
     27      18.9928      0.00000
     28      19.3322      0.00000
     29      19.5718      0.00000
     30      20.0751      0.00000
     31      21.3514      0.00000
     32      21.8027      0.00000

 k-point    32 :       0.4035    0.1930    0.0000
  band No.  band energies     occupation 
      1      -6.7587      2.00000
      2      -5.2572      2.00000
      3      -4.7328      2.00000
      4       1.0778      2.00000
      5       1.2534      2.00000
      6       2.2939      2.00000
      7       2.3737      2.00000
      8       3.5152      2.00000
      9       3.5710      2.00000
     10       7.4950      0.00000
     11       7.7824      0.00000
     12       8.8622      0.00000
     13       9.5590      0.00000
     14      11.6804      0.00000
     15      12.4731      0.00000
     16      14.0205      0.00000
     17      14.2812      0.00000
     18      14.9878      0.00000
     19      16.0002      0.00000
     20      16.1161      0.00000
     21      16.8095      0.00000
     22      17.1089      0.00000
     23      17.3996      0.00000
     24      17.6790      0.00000
     25      18.2919      0.00000
     26      18.6361      0.00000
     27      19.0132      0.00000
     28      19.3332      0.00000
     29      19.7061      0.00000
     30      20.1683      0.00000
     31      21.3902      0.00000
     32      21.5819      0.00000

 k-point    33 :       0.3947    0.2105    0.0000
  band No.  band energies     occupation 
      1      -6.7450      2.00000
      2      -5.2341      2.00000
      3      -4.7724      2.00000
      4       1.1050      2.00000
      5       1.2506      2.00000
      6       2.3306      2.00000
      7       2.4039      2.00000
      8       3.3903      2.00000
      9       3.4528      2.00000
     10       7.6305      0.00000
     11       7.9151      0.00000
     12       8.8168      0.00000
     13       9.7022      0.00000
     14      11.5644      0.00000
     15      12.3195      0.00000
     16      13.9678      0.00000
     17      14.2451      0.00000
     18      14.9247      0.00000
     19      16.0069      0.00000
     20      16.1398      0.00000
     21      16.9482      0.00000
     22      17.1605      0.00000
     23      17.5180      0.00000
     24      17.7136      0.00000
     25      18.2837      0.00000
     26      18.5985      0.00000
     27      19.0232      0.00000
     28      19.3598      0.00000
     29      19.8876      0.00000
     30      20.2647      0.00000
     31      21.3477      0.00000
     32      21.4177      0.00000

 k-point    34 :       0.3860    0.2281    0.0000
  band No.  band energies     occupation 
      1      -6.7314      2.00000
      2      -5.2095      2.00000
      3      -4.8130      2.00000
      4       1.1321      2.00000
      5       1.2488      2.00000
      6       2.3699      2.00000
      7       2.4354      2.00000
      8       3.2686      2.00000
      9       3.3436      2.00000
     10       7.7613      0.00000
     11       8.0364      0.00000
     12       8.7691      0.00000
     13       9.8469      0.00000
     14      11.4578      0.00000
     15      12.1700      0.00000
     16      13.9262      0.00000
     17      14.2110      0.00000
     18      14.8537      0.00000
     19      16.0192      0.00000
     20      16.1596      0.00000
     21      17.0843      0.00000
     22      17.1938      0.00000
     23      17.6324      0.00000
     24      17.7677      0.00000
     25      18.2866      0.00000
     26      18.5296      0.00000
     27      19.0458      0.00000
     28      19.4085      0.00000
     29      20.0879      0.00000
     30      20.3220      0.00000
     31      21.1514      0.00000
     32      21.4204      0.00000

 k-point    35 :       0.3772    0.2456    0.0000
  band No.  band energies     occupation 
      1      -6.7185      2.00000
      2      -5.1836      2.00000
      3      -4.8539      2.00000
      4       1.1584      2.00000
      5       1.2478      2.00000
      6       2.4117      2.00000
      7       2.4674      2.00000
      8       3.1512      2.00000
      9       3.2453      2.00000
     10       7.8848      0.00000
     11       8.1433      0.00000
     12       8.7203      0.00000
     13       9.9902      0.00000
     14      11.3640      0.00000
     15      12.0246      0.00000
     16      13.8978      0.00000
     17      14.1797      0.00000
     18      14.7784      0.00000
     19      16.0376      0.00000
     20      16.1761      0.00000
     21      17.2072      0.00000
     22      17.2244      0.00000
     23      17.6979      0.00000
     24      17.8453      0.00000
     25      18.3333      0.00000
     26      18.4452      0.00000
     27      19.0868      0.00000
     28      19.4664      0.00000
     29      20.2775      0.00000
     30      20.2874      0.00000
     31      21.0642      0.00000
     32      21.3742      0.00000

 k-point    36 :       0.3684    0.2632    0.0000
  band No.  band energies     occupation 
      1      -6.7068      2.00000
      2      -5.1564      2.00000
      3      -4.8945      2.00000
      4       1.1829      2.00000
      5       1.2473      2.00000
      6       2.4559      2.00000
      7       2.4992      2.00000
      8       3.0395      2.00000
      9       3.1602      2.00000
     10       7.9985      0.00000
     11       8.2327      0.00000
     12       8.6722      0.00000
     13      10.1273      0.00000
     14      11.2882      0.00000
     15      11.8836      0.00000
     16      13.8844      0.00000
     17      14.1512      0.00000
     18      14.7027      0.00000
     19      16.0616      0.00000
     20      16.1891      0.00000
     21      17.2586      0.00000
     22      17.3090      0.00000
     23      17.6975      0.00000
     24      17.9469      0.00000
     25      18.3582      0.00000
     26      18.4386      0.00000
     27      19.1453      0.00000
     28      19.5126      0.00000
     29      20.1297      0.00000
     30      20.4577      0.00000
     31      21.1042      0.00000
     32      21.2738      0.00000

 k-point    37 :       0.3596    0.2807    0.0000
  band No.  band energies     occupation 
      1      -6.6967      2.00000
      2      -5.1283      2.00000
      3      -4.9342      2.00000
      4       1.2045      2.00000
      5       1.2471      2.00000
      6       2.5019      2.00000
      7       2.5297      2.00000
      8       2.9346      2.00000
      9       3.0908      2.00000
     10       8.0997      0.00000
     11       8.2998      0.00000
     12       8.6284      0.00000
     13      10.2506      0.00000
     14      11.2385      0.00000
     15      11.7469      0.00000
     16      13.8873      0.00000
     17      14.1238      0.00000
     18      14.6320      0.00000
     19      16.0897      0.00000
     20      16.1974      0.00000
     21      17.2988      0.00000
     22      17.3868      0.00000
     23      17.6524      0.00000
     24      18.0654      0.00000
     25      18.2802      0.00000
     26      18.5814      0.00000
     27      19.2189      0.00000
     28      19.4977      0.00000
     29      19.9863      0.00000
     30      20.5283      0.00000
     31      21.2050      0.00000
     32      21.2115      0.00000

 k-point    38 :       0.3509    0.2982    0.0000
  band No.  band energies     occupation 
      1      -6.6887      2.00000
      2      -5.0993      2.00000
      3      -4.9720      2.00000
      4       1.2223      2.00000
      5       1.2465      2.00000
      6       2.5485      2.00000
      7       2.5575      2.00000
      8       2.8389      2.00000
      9       3.0397      2.00000
     10       8.1860      0.00000
     11       8.3372      0.00000
     12       8.5957      0.00000
     13      10.3485      0.00000
     14      11.2274      0.00000
     15      11.6146      0.00000
     16      13.9073      0.00000
     17      14.0930      0.00000
     18      14.5731      0.00000
     19      16.1198      0.00000
     20      16.1994      0.00000
     21      17.3461      0.00000
     22      17.4408      0.00000
     23      17.5886      0.00000
     24      18.1615      0.00000
     25      18.2467      0.00000
     26      18.7345      0.00000
     27      19.3034      0.00000
     28      19.3611      0.00000
     29      19.9552      0.00000
     30      20.4307      0.00000
     31      21.2761      0.00000
     32      21.3416      0.00000

 k-point    39 :       0.3421    0.3158    0.0000
  band No.  band energies     occupation 
      1      -6.6836      2.00000
      2      -5.0697      2.00000
      3      -5.0074      2.00000
      4       1.2350      2.00000
      5       1.2450      2.00000
      6       2.5818      2.00000
      7       2.5910      2.00000
      8       2.7581      2.00000
      9       3.0088      2.00000
     10       8.2556      0.00000
     11       8.3381      0.00000
     12       8.5805      0.00000
     13      10.4083      0.00000
     14      11.2678      0.00000
     15      11.4868      0.00000
     16      13.9445      0.00000
     17      14.0529      0.00000
     18      14.5340      0.00000
     19      16.1493      0.00000
     20      16.1929      0.00000
     21      17.4008      0.00000
     22      17.4705      0.00000
     23      17.5226      0.00000
     24      18.1476      0.00000
     25      18.3316      0.00000
     26      18.8795      0.00000
     27      19.1610      0.00000
     28      19.3860      0.00000
     29      20.0106      0.00000
     30      20.2474      0.00000
     31      21.4355      0.00000
     32      21.4715      0.00000

 k-point    40 :       0.3333    0.3333    0.0000
  band No.  band energies     occupation 
      1      -6.6817      2.00000
      2      -5.0396      2.00000
      3      -5.0395      2.00000
      4       1.2421      2.00000
      5       1.2421      2.00000
      6       2.6031      2.00000
      7       2.6031      2.00000
      8       2.7194      2.00000
      9       2.9988      2.00000
     10       8.3071      0.00000
     11       8.3071      0.00000
     12       8.5783      0.00000
     13      10.4267      0.00000
     14      11.3636      0.00000
     15      11.3636      0.00000
     16      13.9985      0.00000
     17      13.9985      0.00000
     18      14.5205      0.00000
     19      16.1755      0.00000
     20      16.1755      0.00000
     21      17.4533      0.00000
     22      17.4732      0.00000
     23      17.4732      0.00000
     24      18.1346      0.00000
     25      18.3843      0.00000
     26      19.0017      0.00000
     27      19.0017      0.00000
     28      19.4277      0.00000
     29      20.0980      0.00000
     30      20.0980      0.00000
     31      21.5871      0.00000
     32      21.6049      0.00000

 k-point    41 :       0.3333    0.3333    0.0000
  band No.  band energies     occupation 
      1      -6.6817      2.00000
      2      -5.0396      2.00000
      3      -5.0395      2.00000
      4       1.2421      2.00000
      5       1.2421      2.00000
      6       2.6031      2.00000
      7       2.6031      2.00000
      8       2.7194      2.00000
      9       2.9988      2.00000
     10       8.3071      0.00000
     11       8.3071      0.00000
     12       8.5783      0.00000
     13      10.4267      0.00000
     14      11.3636      0.00000
     15      11.3636      0.00000
     16      13.9985      0.00000
     17      13.9985      0.00000
     18      14.5205      0.00000
     19      16.1755      0.00000
     20      16.1755      0.00000
     21      17.4533      0.00000
     22      17.4732      0.00000
     23      17.4732      0.00000
     24      18.1346      0.00000
     25      18.3843      0.00000
     26      19.0017      0.00000
     27      19.0017      0.00000
     28      19.4277      0.00000
     29      20.0980      0.00000
     30      20.0980      0.00000
     31      21.5871      0.00000
     32      21.5951      0.00000

 k-point    42 :       0.3158    0.3158    0.0000
  band No.  band energies     occupation 
      1      -6.6901      2.00000
      2      -5.0914      2.00000
      3      -4.9787      2.00000
      4       1.2289      2.00000
      5       1.2378      2.00000
      6       2.5058      2.00000
      7       2.6470      2.00000
      8       2.8021      2.00000
      9       3.0325      2.00000
     10       8.1982      0.00000
     11       8.3552      0.00000
     12       8.5676      0.00000
     13      10.3786      0.00000
     14      11.1310      0.00000
     15      11.6797      0.00000
     16      13.8496      0.00000
     17      14.1515      0.00000
     18      14.5679      0.00000
     19      16.1013      0.00000
     20      16.2061      0.00000
     21      17.3777      0.00000
     22      17.3820      0.00000
     23      17.6082      0.00000
     24      18.1333      0.00000
     25      18.2321      0.00000
     26      18.9909      0.00000
     27      19.0429      0.00000
     28      19.3752      0.00000
     29      20.1816      0.00000
     30      20.2919      0.00000
     31      21.0409      0.00000
     32      21.6630      0.00000

 k-point    43 :       0.2982    0.2982    0.0000
  band No.  band energies     occupation 
      1      -6.7171      2.00000
      2      -5.1234      2.00000
      3      -4.9186      2.00000
      4       1.2033      2.00000
      5       1.2126      2.00000
      6       2.4202      2.00000
      7       2.7134      2.00000
      8       2.9287      2.00000
      9       3.1138      2.00000
     10       8.0667      0.00000
     11       8.3348      0.00000
     12       8.5167      0.00000
     13      10.2831      0.00000
     14      10.9177      0.00000
     15      12.0879      0.00000
     16      13.6743      0.00000
     17      14.3492      0.00000
     18      14.6807      0.00000
     19      15.9747      0.00000
     20      16.1938      0.00000
     21      17.0882      0.00000
     22      17.3532      0.00000
     23      17.7496      0.00000
     24      17.9391      0.00000
     25      18.3704      0.00000
     26      18.5820      0.00000
     27      19.2483      0.00000
     28      19.5154      0.00000
     29      20.4194      0.00000
     30      20.4661      0.00000
     31      20.5383      0.00000
     32      21.5188      0.00000

 k-point    44 :       0.2807    0.2807    0.0000
  band No.  band energies     occupation 
      1      -6.7638      2.00000
      2      -5.1338      2.00000
      3      -4.8609      2.00000
      4       1.1655      2.00000
      5       1.1768      2.00000
      6       2.3757      2.00000
      7       2.8134      2.00000
      8       3.0698      2.00000
      9       3.2211      2.00000
     10       7.9282      0.00000
     11       8.2577      0.00000
     12       8.4229      0.00000
     13      10.1766      0.00000
     14      10.7249      0.00000
     15      12.5289      0.00000
     16      13.5063      0.00000
     17      14.5625      0.00000
     18      14.8133      0.00000
     19      15.8135      0.00000
     20      16.1292      0.00000
     21      16.6634      0.00000
     22      17.2934      0.00000
     23      17.7786      0.00000
     24      17.9139      0.00000
     25      18.3594      0.00000
     26      18.6033      0.00000
     27      19.3746      0.00000
     28      19.5642      0.00000
     29      20.0749      0.00000
     30      20.3778      0.00000
     31      20.8753      0.00000
     32      21.5436      0.00000

 k-point    45 :       0.2632    0.2632    0.0000
  band No.  band energies     occupation 
      1      -6.8289      2.00000
      2      -5.1236      2.00000
      3      -4.8074      2.00000
      4       1.1212      2.00000
      5       1.1427      2.00000
      6       2.3688      2.00000
      7       2.9439      2.00000
      8       3.2235      2.00000
      9       3.3443      2.00000
     10       7.7883      0.00000
     11       8.1363      0.00000
     12       8.2940      0.00000
     13      10.0728      0.00000
     14      10.5538      0.00000
     15      12.8996      0.00000
     16      13.4273      0.00000
     17      14.7440      0.00000
     18      14.9154      0.00000
     19      15.6463      0.00000
     20      15.9440      0.00000
     21      16.3478      0.00000
     22      17.0225      0.00000
     23      17.7768      0.00000
     24      17.9659      0.00000
     25      18.4633      0.00000
     26      18.9004      0.00000
     27      19.2433      0.00000
     28      19.3044      0.00000
     29      20.0900      0.00000
     30      20.3137      0.00000
     31      21.1906      0.00000
     32      21.7093      0.00000

 k-point    46 :       0.2456    0.2456    0.0000
  band No.  band energies     occupation 
      1      -6.9088      2.00000
      2      -5.0963      2.00000
      3      -4.7596      2.00000
      4       1.0791      2.00000
      5       1.1212      2.00000
      6       2.3903      2.00000
      7       3.0962      2.00000
      8       3.3895      2.00000
      9       3.4795      2.00000
     10       7.6500      0.00000
     11       7.9803      0.00000
     12       8.1392      0.00000
     13       9.9800      0.00000
     14      10.4063      0.00000
     15      12.9432      0.00000
     16      13.6529      0.00000
     17      14.8193      0.00000
     18      14.9208      0.00000
     19      15.4939      0.00000
     20      15.6281      0.00000
     21      16.2998      0.00000
     22      16.6707      0.00000
     23      17.8774      0.00000
     24      17.9926      0.00000
     25      18.4336      0.00000
     26      19.0706      0.00000
     27      19.0753      0.00000
     28      19.2667      0.00000
     29      20.2479      0.00000
     30      20.3334      0.00000
     31      21.2274      0.00000
     32      21.5049      0.00000

 k-point    47 :       0.2281    0.2281    0.0000
  band No.  band energies     occupation 
      1      -6.9993      2.00000
      2      -5.0565      2.00000
      3      -4.7187      2.00000
      4       1.0485      2.00000
      5       1.1201      2.00000
      6       2.4304      2.00000
      7       3.2595      2.00000
      8       3.5676      2.00000
      9       3.6267      2.00000
     10       7.5148      0.00000
     11       7.7962      0.00000
     12       7.9670      0.00000
     13       9.9052      0.00000
     14      10.2839      0.00000
     15      12.8090      0.00000
     16      13.9292      0.00000
     17      14.7371      0.00000
     18      14.7744      0.00000
     19      15.2987      0.00000
     20      15.4723      0.00000
     21      16.3854      0.00000
     22      16.4712      0.00000
     23      17.8479      0.00000
     24      17.8928      0.00000
     25      18.2137      0.00000
     26      18.9310      0.00000
     27      19.3296      0.00000
     28      19.6498      0.00000
     29      20.2947      0.00000
     30      20.3070      0.00000
     31      20.9169      0.00000
     32      21.2509      0.00000

 k-point    48 :       0.2105    0.2105    0.0000
  band No.  band energies     occupation 
      1      -7.0958      2.00000
      2      -5.0090      2.00000
      3      -4.6856      2.00000
      4       1.0366      2.00000
      5       1.1443      2.00000
      6       2.4807      2.00000
      7       3.4218      2.00000
      8       3.7569      2.00000
      9       3.7887      2.00000
     10       7.3830      0.00000
     11       7.5880      0.00000
     12       7.7857      0.00000
     13       9.8543      0.00000
     14      10.1886      0.00000
     15      12.6522      0.00000
     16      13.9169      0.00000
     17      14.5336      0.00000
     18      14.5968      0.00000
     19      14.9888      0.00000
     20      15.5714      0.00000
     21      16.4706      0.00000
     22      16.5311      0.00000
     23      17.4480      0.00000
     24      17.6882      0.00000
     25      18.3486      0.00000
     26      18.9159      0.00000
     27      19.6197      0.00000
     28      19.8492      0.00000
     29      20.1289      0.00000
     30      20.3162      0.00000
     31      20.9639      0.00000
     32      21.2599      0.00000

 k-point    49 :       0.1930    0.1930    0.0000
  band No.  band energies     occupation 
      1      -7.1945      2.00000
      2      -4.9582      2.00000
      3      -4.6607      2.00000
      4       1.0491      2.00000
      5       1.1966      2.00000
      6       2.5346      2.00000
      7       3.5720      2.00000
      8       3.9557      2.00000
      9       3.9680      2.00000
     10       7.2523      0.00000
     11       7.3594      0.00000
     12       7.6044      0.00000
     13       9.8317      0.00000
     14      10.1218      0.00000
     15      12.4980      0.00000
     16      13.6386      0.00000
     17      14.2448      0.00000
     18      14.4419      0.00000
     19      14.6406      0.00000
     20      15.7384      0.00000
     21      16.4581      0.00000
     22      16.7271      0.00000
     23      17.1226      0.00000
     24      17.5662      0.00000
     25      18.5414      0.00000
     26      18.8810      0.00000
     27      19.4626      0.00000
     28      19.7046      0.00000
     29      20.3566      0.00000
     30      20.7340      0.00000
     31      21.1827      0.00000
     32      21.4142      0.00000

 k-point    50 :       0.1754    0.1754    0.0000
  band No.  band energies     occupation 
      1      -7.2921      2.00000
      2      -4.9075      2.00000
      3      -4.6437      2.00000
      4       1.0896      2.00000
      5       1.2781      2.00000
      6       2.5876      2.00000
      7       3.7032      2.00000
      8       4.1607      2.00000
      9       4.1627      2.00000
     10       7.1145      0.00000
     11       7.1175      0.00000
     12       7.4351      0.00000
     13       9.8400      0.00000
     14      10.0848      0.00000
     15      12.3525      0.00000
     16      13.2920      0.00000
     17      13.8884      0.00000
     18      14.2449      0.00000
     19      14.3231      0.00000
     20      15.6856      0.00000
     21      16.1697      0.00000
     22      17.0320      0.00000
     23      17.1031      0.00000
     24      17.6670      0.00000
     25      18.6518      0.00000
     26      18.6823      0.00000
     27      19.2346      0.00000
     28      19.7147      0.00000
     29      20.8262      0.00000
     30      21.2194      0.00000
     31      21.4388      0.00000
     32      21.6272      0.00000

 k-point    51 :       0.1579    0.1579    0.0000
  band No.  band energies     occupation 
      1      -7.3860      2.00000
      2      -4.8596      2.00000
      3      -4.6341      2.00000
      4       1.1602      2.00000
      5       1.3881      2.00000
      6       2.6366      2.00000
      7       3.8137      2.00000
      8       4.3645      2.00000
      9       4.3653      2.00000
     10       6.8604      0.00000
     11       6.9722      0.00000
     12       7.2911      0.00000
     13       9.8793      0.00000
     14      10.0782      0.00000
     15      12.2184      0.00000
     16      12.9533      0.00000
     17      13.5054      0.00000
     18      14.0015      0.00000
     19      14.0323      0.00000
     20      15.4268      0.00000
     21      15.7473      0.00000
     22      17.1829      0.00000
     23      17.3038      0.00000
     24      18.0086      0.00000
     25      18.4542      0.00000
     26      18.5531      0.00000
     27      19.3120      0.00000
     28      19.8794      0.00000
     29      21.3133      0.00000
     30      21.6221      0.00000
     31      21.6925      0.00000
     32      21.9282      0.00000

 k-point    52 :       0.1404    0.1404    0.0000
  band No.  band energies     occupation 
      1      -7.4741      2.00000
      2      -4.8164      2.00000
      3      -4.6307      2.00000
      4       1.2616      2.00000
      5       1.5251      2.00000
      6       2.6799      2.00000
      7       3.9040      2.00000
      8       4.5579      2.00000
      9       4.5605      2.00000
     10       6.6092      0.00000
     11       6.8184      0.00000
     12       7.1797      0.00000
     13       9.9477      0.00000
     14      10.1016      0.00000
     15      12.0970      0.00000
     16      12.6455      0.00000
     17      13.1322      0.00000
     18      13.7187      0.00000
     19      13.7488      0.00000
     20      15.0989      0.00000
     21      15.3158      0.00000
     22      17.1578      0.00000
     23      17.3144      0.00000
     24      18.3326      0.00000
     25      18.4882      0.00000
     26      18.6286      0.00000
     27      19.5501      0.00000
     28      20.1105      0.00000
     29      21.6559      0.00000
     30      21.8397      0.00000
     31      21.9322      0.00000
     32      22.1481      0.00000

 k-point    53 :       0.1228    0.1228    0.0000
  band No.  band energies     occupation 
      1      -7.5549      2.00000
      2      -4.7789      2.00000
      3      -4.6323      2.00000
      4       1.3931      2.00000
      5       1.6861      2.00000
      6       2.7167      2.00000
      7       3.9747      2.00000
      8       4.7163      2.00000
      9       4.7335      2.00000
     10       6.3833      0.00000
     11       6.6716      0.00000
     12       7.0982      0.00000
     13      10.0413      0.00000
     14      10.1530      0.00000
     15      11.9896      0.00000
     16      12.3775      0.00000
     17      12.7883      0.00000
     18      13.4059      0.00000
     19      13.4649      0.00000
     20      14.7654      0.00000
     21      14.9033      0.00000
     22      16.9875      0.00000
     23      17.0967      0.00000
     24      18.5252      0.00000
     25      18.5941      0.00000
     26      19.2462      0.00000
     27      19.8282      0.00000
     28      20.3762      0.00000
     29      21.7185      0.00000
     30      21.9437      0.00000
     31      22.2157      0.00000
     32      22.4457      0.00000

 k-point    54 :       0.1053    0.1053    0.0000
  band No.  band energies     occupation 
      1      -7.6270      2.00000
      2      -4.7476      2.00000
      3      -4.6375      2.00000
      4       1.5529      2.00000
      5       1.8672      2.00000
      6       2.7469      2.00000
      7       4.0255      2.00000
      8       4.8018      2.00000
      9       4.8623      2.00000
     10       6.2210      0.00000
     11       6.5540      0.00000
     12       7.0422      0.00000
     13      10.1529      0.00000
     14      10.2280      0.00000
     15      11.8973      0.00000
     16      12.1538      0.00000
     17      12.4848      0.00000
     18      13.0787      0.00000
     19      13.1827      0.00000
     20      14.4444      0.00000
     21      14.5166      0.00000
     22      16.7486      0.00000
     23      16.8145      0.00000
     24      18.7998      0.00000
     25      18.8145      0.00000
     26      19.9009      0.00000
     27      20.1153      0.00000
     28      20.6700      0.00000
     29      21.7043      0.00000
     30      21.9710      0.00000
     31      22.4015      0.00000
     32      22.7210      0.00000

 k-point    55 :       0.0877    0.0877    0.0000
  band No.  band energies     occupation 
      1      -7.6894      2.00000
      2      -4.7224      2.00000
      3      -4.6447      2.00000
      4       1.7371      2.00000
      5       2.0632      2.00000
      6       2.7710      2.00000
      7       4.0556      2.00000
      8       4.7710      2.00000
      9       4.9268      2.00000
     10       6.1649      0.00000
     11       6.4854      0.00000
     12       7.0101      0.00000
     13      10.2725      0.00000
     14      10.3188      0.00000
     15      11.8194      0.00000
     16      11.9794      0.00000
     17      12.2304      0.00000
     18      12.7585      0.00000
     19      12.9103      0.00000
     20      14.1371      0.00000
     21      14.1576      0.00000
     22      16.5080      0.00000
     23      16.5457      0.00000
     24      19.0883      0.00000
     25      19.1095      0.00000
     26      20.3913      0.00000
     27      20.5119      0.00000
     28      21.0110      0.00000
     29      21.6810      0.00000
     30      21.9462      0.00000
     31      22.4827      0.00000
     32      22.9501      0.00000

 k-point    56 :       0.0702    0.0702    0.0000
  band No.  band energies     occupation 
      1      -7.7414      2.00000
      2      -4.7030      2.00000
      3      -4.6527      2.00000
      4       1.9400      2.00000
      5       2.2668      2.00000
      6       2.7899      2.00000
      7       4.0627      2.00000
      8       4.6242      2.00000
      9       4.9226      2.00000
     10       6.2133      0.00000
     11       6.4689      0.00000
     12       7.0022      0.00000
     13      10.3864      0.00000
     14      10.4133      0.00000
     15      11.7405      0.00000
     16      11.8715      0.00000
     17      12.0345      0.00000
     18      12.4709      0.00000
     19      12.6605      0.00000
     20      13.8275      0.00000
     21      13.8419      0.00000
     22      16.2969      0.00000
     23      16.3168      0.00000
     24      19.3846      0.00000
     25      19.4331      0.00000
     26      20.6257      0.00000
     27      20.9674      0.00000
     28      21.4584      0.00000
     29      21.6778      0.00000
     30      21.8925      0.00000
     31      22.5191      0.00000
     32      23.1025      0.00000

 k-point    57 :       0.0526    0.0526    0.0000
  band No.  band energies     occupation 
      1      -7.7824      2.00000
      2      -4.6887      2.00000
      3      -4.6602      2.00000
      4       2.1515      2.00000
      5       2.4674      2.00000
      6       2.8045      2.00000
      7       4.0447      2.00000
      8       4.4110      2.00000
      9       4.8709      2.00000
     10       6.3164      0.00000
     11       6.4851      0.00000
     12       7.0178      0.00000
     13      10.4798      0.00000
     14      10.4955      0.00000
     15      11.6423      0.00000
     16      11.8452      0.00000
     17      11.9069      0.00000
     18      12.2447      0.00000
     19      12.4469      0.00000
     20      13.5321      0.00000
     21      13.5624      0.00000
     22      16.1280      0.00000
     23      16.1373      0.00000
     24      19.6864      0.00000
     25      19.7576      0.00000
     26      20.7692      0.00000
     27      21.2329      0.00000
     28      21.7291      0.00000
     29      21.8261      0.00000
     30      21.9792      0.00000
     31      22.5583      0.00000
     32      23.1246      0.00000

 k-point    58 :       0.0351    0.0351    0.0000
  band No.  band energies     occupation 
      1      -7.8121      2.00000
      2      -4.6790      2.00000
      3      -4.6663      2.00000
      4       2.3534      2.00000
      5       2.6482      2.00000
      6       2.8163      2.00000
      7       4.0038      2.00000
      8       4.1869      2.00000
      9       4.8068      2.00000
     10       6.4237      0.00000
     11       6.5083      0.00000
     12       7.0493      0.00000
     13      10.5427      0.00000
     14      10.5513      0.00000
     15      11.5451      0.00000
     16      11.8503      0.00000
     17      11.8609      0.00000
     18      12.1115      0.00000
     19      12.2823      0.00000
     20      13.2850      0.00000
     21      13.3125      0.00000
     22      16.0063      0.00000
     23      16.0098      0.00000
     24      19.9805      0.00000
     25      20.0674      0.00000
     26      20.7832      0.00000
     27      21.3028      0.00000
     28      21.8448      0.00000
     29      21.8656      0.00000
     30      22.4010      0.00000
     31      22.6277      0.00000
     32      23.0462      0.00000

 k-point    59 :       0.0175    0.0175    0.0000
  band No.  band energies     occupation 
      1      -7.8299      2.00000
      2      -4.6734      2.00000
      3      -4.6702      2.00000
      4       2.5107      2.00000
      5       2.7821      2.00000
      6       2.8272      2.00000
      7       3.9560      2.00000
      8       4.0063      2.00000
      9       4.7593      2.00000
     10       6.5013      0.00000
     11       6.5242      0.00000
     12       7.0800      0.00000
     13      10.5753      0.00000
     14      10.5780      0.00000
     15      11.4721      0.00000
     16      11.8470      0.00000
     17      11.8625      0.00000
     18      12.0895      0.00000
     19      12.1762      0.00000
     20      13.1122      0.00000
     21      13.1233      0.00000
     22      15.9332      0.00000
     23      15.9340      0.00000
     24      20.2524      0.00000
     25      20.3291      0.00000
     26      20.6835      0.00000
     27      21.2134      0.00000
     28      21.9664      0.00000
     29      21.9672      0.00000
     30      22.6944      0.00000
     31      22.7207      0.00000
     32      23.0030      0.00000

 k-point    60 :      -0.0000   -0.0000    0.0000
  band No.  band energies     occupation 
      1      -7.8359      2.00000
      2      -4.6715      2.00000
      3      -4.6715      2.00000
      4       2.5723      2.00000
      5       2.8333      2.00000
      6       2.8333      2.00000
      7       3.9335      2.00000
      8       3.9335      2.00000
      9       4.7424      2.00000
     10       6.5295      0.00000
     11       6.5295      0.00000
     12       7.0926      0.00000
     13      10.5848      0.00000
     14      10.5848      0.00000
     15      11.4447      0.00000
     16      11.8550      0.00000
     17      11.8551      0.00000
     18      12.1047      0.00000
     19      12.1385      0.00000
     20      13.0484      0.00000
     21      13.0484      0.00000
     22      15.9089      0.00000
     23      15.9089      0.00000
     24      20.4494      0.00000
     25      20.4494      0.00000
     26      20.5415      0.00000
     27      21.1415      0.00000
     28      22.0175      0.00000
     29      22.0175      0.00000
     30      22.7533      0.00000
     31      22.7777      0.00000
     32      23.1108      0.00000

 k-point    61 :       0.0000    0.0000    0.0000
  band No.  band energies     occupation 
      1      -7.8359      2.00000
      2      -4.6715      2.00000
      3      -4.6715      2.00000
      4       2.5723      2.00000
      5       2.8333      2.00000
      6       2.8333      2.00000
      7       3.9335      2.00000
      8       3.9335      2.00000
      9       4.7424      2.00000
     10       6.5295      0.00000
     11       6.5295      0.00000
     12       7.0926      0.00000
     13      10.5848      0.00000
     14      10.5848      0.00000
     15      11.4447      0.00000
     16      11.8550      0.00000
     17      11.8551      0.00000
     18      12.1047      0.00000
     19      12.1385      0.00000
     20      13.0484      0.00000
     21      13.0484      0.00000
     22      15.9089      0.00000
     23      15.9089      0.00000
     24      20.4494      0.00000
     25      20.4494      0.00000
     26      20.5415      0.00000
     27      21.1415      0.00000
     28      22.0175      0.00000
     29      22.0175      0.00000
     30      22.7544      0.00000
     31      22.7768      0.00000
     32      23.0952      0.00000

 k-point    62 :       0.0000    0.0000    0.0263
  band No.  band energies     occupation 
      1      -7.8335      2.00000
      2      -4.8139      2.00000
      3      -4.5287      2.00000
      4       2.5738      2.00000
      5       2.7771      2.00000
      6       2.8846      2.00000
      7       3.9308      2.00000
      8       3.9410      2.00000
      9       4.7422      2.00000
     10       6.5220      0.00000
     11       6.5279      0.00000
     12       7.0852      0.00000
     13      10.5372      0.00000
     14      10.6401      0.00000
     15      11.4568      0.00000
     16      11.7820      0.00000
     17      11.9337      0.00000
     18      11.9717      0.00000
     19      12.2797      0.00000
     20      12.9205      0.00000
     21      13.1995      0.00000
     22      15.6111      0.00000
     23      16.2181      0.00000
     24      20.1257      0.00000
     25      20.3981      0.00000
     26      20.7480      0.00000
     27      21.2783      0.00000
     28      21.7112      0.00000
     29      22.3318      0.00000
     30      22.4607      0.00000
     31      22.7795      0.00000
     32      22.9296      0.00000

 k-point    63 :       0.0000    0.0000    0.0526
  band No.  band energies     occupation 
      1      -7.8262      2.00000
      2      -4.9555      2.00000
      3      -4.3859      2.00000
      4       2.5781      2.00000
      5       2.7166      2.00000
      6       2.9307      2.00000
      7       3.9332      2.00000
      8       3.9525      2.00000
      9       4.7416      2.00000
     10       6.5056      0.00000
     11       6.5175      0.00000
     12       7.0635      0.00000
     13      10.4927      0.00000
     14      10.7066      0.00000
     15      11.4923      0.00000
     16      11.7270      0.00000
     17      11.8321      0.00000
     18      11.9990      0.00000
     19      12.4441      0.00000
     20      12.8315      0.00000
     21      13.3655      0.00000
     22      15.3259      0.00000
     23      16.5378      0.00000
     24      19.7933      0.00000
     25      20.1223      0.00000
     26      20.9487      0.00000
     27      21.4740      0.00000
     28      21.5187      0.00000
     29      22.1788      0.00000
     30      22.4822      0.00000
     31      22.5690      0.00000
     32      22.7136      0.00000

 k-point    64 :       0.0000    0.0000    0.0789
  band No.  band energies     occupation 
      1      -7.8141      2.00000
      2      -5.0958      2.00000
      3      -4.2437      2.00000
      4       2.5852      2.00000
      5       2.6522      2.00000
      6       2.9711      2.00000
      7       3.9410      2.00000
      8       3.9678      2.00000
      9       4.7405      2.00000
     10       6.4807      0.00000
     11       6.4992      0.00000
     12       7.0282      0.00000
     13      10.4467      0.00000
     14      10.7867      0.00000
     15      11.5474      0.00000
     16      11.6980      0.00000
     17      11.7043      0.00000
     18      12.0253      0.00000
     19      12.6163      0.00000
     20      12.8040      0.00000
     21      13.5409      0.00000
     22      15.0549      0.00000
     23      16.8673      0.00000
     24      19.4578      0.00000
     25      19.8166      0.00000
     26      20.8490      0.00000
     27      21.4537      0.00000
     28      21.6131      0.00000
     29      22.0683      0.00000
     30      22.2665      0.00000
     31      22.3177      0.00000
     32      22.9717      0.00000

 k-point    65 :       0.0000    0.0000    0.1053
  band No.  band energies     occupation 
      1      -7.7971      2.00000
      2      -5.2347      2.00000
      3      -4.1026      2.00000
      4       2.5846      2.00000
      5       2.5952      2.00000
      6       3.0055      2.00000
      7       3.9545      2.00000
      8       3.9863      2.00000
      9       4.7389      2.00000
     10       6.4483      0.00000
     11       6.4738      0.00000
     12       6.9807      0.00000
     13      10.3957      0.00000
     14      10.8815      0.00000
     15      11.5553      0.00000
     16      11.6540      0.00000
     17      11.7002      0.00000
     18      11.9968      0.00000
     19      12.7957      0.00000
     20      12.8515      0.00000
     21      13.7204      0.00000
     22      14.8019      0.00000
     23      17.2059      0.00000
     24      19.1218      0.00000
     25      19.5034      0.00000
     26      20.5637      0.00000
     27      21.3871      0.00000
     28      21.3979      0.00000
     29      22.0150      0.00000
     30      22.2724      0.00000
     31      22.2832      0.00000
     32      23.2620      0.00000

 k-point    66 :       0.0000    0.0000    0.1316
  band No.  band energies     occupation 
      1      -7.7753      2.00000
      2      -5.3717      2.00000
      3      -3.9633      2.00000
      4       2.5142      2.00000
      5       2.6078      2.00000
      6       3.0340      2.00000
      7       3.9739      2.00000
      8       4.0074      2.00000
      9       4.7367      2.00000
     10       6.4095      0.00000
     11       6.4427      0.00000
     12       6.9228      0.00000
     13      10.3380      0.00000
     14      10.9913      0.00000
     15      11.4512      0.00000
     16      11.7351      0.00000
     17      11.7442      0.00000
     18      11.9243      0.00000
     19      12.9613      0.00000
     20      12.9817      0.00000
     21      13.8920      0.00000
     22      14.5779      0.00000
     23      17.5526      0.00000
     24      18.7869      0.00000
     25      19.1896      0.00000
     26      20.2434      0.00000
     27      21.0817      0.00000
     28      21.1668      0.00000
     29      21.7060      0.00000
     30      22.4918      0.00000
     31      22.5771      0.00000
     32      23.5360      0.00000

 k-point    67 :       0.0000    0.0000    0.1579
  band No.  band energies     occupation 
      1      -7.7486      2.00000
      2      -5.5065      2.00000
      3      -3.8264      2.00000
      4       2.4418      2.00000
      5       2.6229      2.00000
      6       3.0564      2.00000
      7       3.9988      2.00000
      8       4.0307      2.00000
      9       4.7340      2.00000
     10       6.3658      0.00000
     11       6.4071      0.00000
     12       6.8564      0.00000
     13      10.2742      0.00000
     14      11.1157      0.00000
     15      11.3467      0.00000
     16      11.8018      0.00000
     17      11.8287      0.00000
     18      11.8611      0.00000
     19      13.1116      0.00000
     20      13.1741      0.00000
     21      14.0056      0.00000
     22      14.4330      0.00000
     23      17.9063      0.00000
     24      18.4540      0.00000
     25      18.8784      0.00000
     26      19.9165      0.00000
     27      20.7625      0.00000
     28      20.8699      0.00000
     29      21.3942      0.00000
     30      22.7892      0.00000
     31      22.8817      0.00000
     32      23.7887      0.00000

 k-point    68 :       0.0000    0.0000    0.1842
  band No.  band energies     occupation 
      1      -7.7172      2.00000
      2      -5.6390      2.00000
      3      -3.6928      2.00000
      4       2.3681      2.00000
      5       2.6405      2.00000
      6       3.0729      2.00000
      7       4.0291      2.00000
      8       4.0557      2.00000
      9       4.7305      2.00000
     10       6.3187      0.00000
     11       6.3684      0.00000
     12       6.7835      0.00000
     13      10.2064      0.00000
     14      11.2503      0.00000
     15      11.2532      0.00000
     16      11.7244      0.00000
     17      11.8975      0.00000
     18      11.9941      0.00000
     19      13.2870      0.00000
     20      13.3722      0.00000
     21      13.9450      0.00000
     22      14.4831      0.00000
     23      18.1237      0.00000
     24      18.2641      0.00000
     25      18.5720      0.00000
     26      19.5918      0.00000
     27      20.4403      0.00000
     28      20.5550      0.00000
     29      21.0809      0.00000
     30      23.1111      0.00000
     31      23.1847      0.00000
     32      24.0145      0.00000

 k-point    69 :       0.0000    0.0000    0.2105
  band No.  band energies     occupation 
      1      -7.6810      2.00000
      2      -5.7688      2.00000
      3      -3.5633      2.00000
      4       2.2939      2.00000
      5       2.6603      2.00000
      6       3.0840      2.00000
      7       4.0642      2.00000
      8       4.0819      2.00000
      9       4.7261      2.00000
     10       6.2699      0.00000
     11       6.3278      0.00000
     12       6.7060      0.00000
     13      10.1369      0.00000
     14      11.1630      0.00000
     15      11.4009      0.00000
     16      11.6208      0.00000
     17      12.0186      0.00000
     18      12.1397      0.00000
     19      13.4790      0.00000
     20      13.5756      0.00000
     21      13.7806      0.00000
     22      14.6583      0.00000
     23      17.7968      0.00000
     24      18.2725      0.00000
     25      18.6157      0.00000
     26      19.2810      0.00000
     27      20.1187      0.00000
     28      20.2376      0.00000
     29      20.7675      0.00000
     30      23.4408      0.00000
     31      23.4805      0.00000
     32      24.2154      0.00000

 k-point    70 :       0.0000    0.0000    0.2368
  band No.  band energies     occupation 
      1      -7.6401      2.00000
      2      -5.8959      2.00000
      3      -3.4389      2.00000
      4       2.2200      2.00000
      5       2.6822      2.00000
      6       3.0900      2.00000
      7       4.1034      2.00000
      8       4.1087      2.00000
      9       4.7207      2.00000
     10       6.2208      0.00000
     11       6.2867      0.00000
     12       6.6257      0.00000
     13      10.0681      0.00000
     14      11.0849      0.00000
     15      11.4921      0.00000
     16      11.5870      0.00000
     17      12.1618      0.00000
     18      12.2947      0.00000
     19      13.6028      0.00000
     20      13.6828      0.00000
     21      13.7834      0.00000
     22      14.8680      0.00000
     23      17.4738      0.00000
     24      17.9820      0.00000
     25      18.8196      0.00000
     26      19.1224      0.00000
     27      19.7998      0.00000
     28      19.9284      0.00000
     29      20.4547      0.00000
     30      23.7643      0.00000
     31      23.7708      0.00000
     32      24.3883      0.00000

 k-point    71 :       0.0000    0.0000    0.2632
  band No.  band energies     occupation 
      1      -7.5944      2.00000
      2      -6.0199      2.00000
      3      -3.3207      2.00000
      4       2.1476      2.00000
      5       2.7059      2.00000
      6       3.0912      2.00000
      7       4.1356      2.00000
      8       4.1461      2.00000
      9       4.7141      2.00000
     10       6.1730      0.00000
     11       6.2460      0.00000
     12       6.5444      0.00000
     13      10.0021      0.00000
     14      11.0164      0.00000
     15      11.4053      0.00000
     16      11.7450      0.00000
     17      12.3239      0.00000
     18      12.4557      0.00000
     19      13.4324      0.00000
     20      13.8952      0.00000
     21      13.9947      0.00000
     22      15.0916      0.00000
     23      17.1555      0.00000
     24      17.7031      0.00000
     25      18.5812      0.00000
     26      19.3595      0.00000
     27      19.4851      0.00000
     28      19.6822      0.00000
     29      20.1432      0.00000
     30      24.0326      0.00000
     31      24.0968      0.00000
     32      24.5408      0.00000

 k-point    72 :       0.0000    0.0000    0.2895
  band No.  band energies     occupation 
      1      -7.5439      2.00000
      2      -6.1408      2.00000
      3      -3.2098      2.00000
      4       2.0776      2.00000
      5       2.7311      2.00000
      6       3.0882      2.00000
      7       4.1620      2.00000
      8       4.1913      2.00000
      9       4.7060      2.00000
     10       6.1279      0.00000
     11       6.2068      0.00000
     12       6.4637      0.00000
     13       9.9403      0.00000
     14      10.9576      0.00000
     15      11.3126      0.00000
     16      11.9222      0.00000
     17      12.5022      0.00000
     18      12.6187      0.00000
     19      13.2753      0.00000
     20      14.1136      0.00000
     21      14.2082      0.00000
     22      15.3233      0.00000
     23      16.8430      0.00000
     24      17.4390      0.00000
     25      18.2832      0.00000
     26      19.1765      0.00000
     27      19.2386      0.00000
     28      19.8337      0.00000
     29      19.8735      0.00000
     30      24.2773      0.00000
     31      24.4114      0.00000
     32      24.6806      0.00000

 k-point    73 :       0.0000    0.0000    0.3158
  band No.  band energies     occupation 
      1      -7.4889      2.00000
      2      -6.2583      2.00000
      3      -3.1075      2.00000
      4       2.0113      2.00000
      5       2.7577      2.00000
      6       3.0814      2.00000
      7       4.1873      2.00000
      8       4.2382      2.00000
      9       4.6961      2.00000
     10       6.0870      0.00000
     11       6.1699      0.00000
     12       6.3853      0.00000
     13       9.8840      0.00000
     14      10.9086      0.00000
     15      11.2256      0.00000
     16      12.1057      0.00000
     17      12.6940      0.00000
     18      12.7792      0.00000
     19      13.1341      0.00000
     20      14.3357      0.00000
     21      14.4222      0.00000
     22      15.5592      0.00000
     23      16.5385      0.00000
     24      17.1937      0.00000
     25      17.9877      0.00000
     26      18.8757      0.00000
     27      18.9559      0.00000
     28      19.5267      0.00000
     29      20.2474      0.00000
     30      24.4923      0.00000
     31      24.7003      0.00000
     32      24.7944      0.00000

 k-point    74 :       0.0000    0.0000    0.3421
  band No.  band energies     occupation 
      1      -7.4292      2.00000
      2      -6.3724      2.00000
      3      -3.0151      2.00000
      4       1.9501      2.00000
      5       2.7852      2.00000
      6       3.0710      2.00000
      7       4.2110      2.00000
      8       4.2860      2.00000
      9       4.6840      2.00000
     10       6.0515      0.00000
     11       6.1362      0.00000
     12       6.3105      0.00000
     13       9.8340      0.00000
     14      10.8694      0.00000
     15      11.1456      0.00000
     16      12.2921      0.00000
     17      12.8935      0.00000
     18      12.9313      0.00000
     19      13.0137      0.00000
     20      14.5586      0.00000
     21      14.6340      0.00000
     22      15.7882      0.00000
     23      16.2531      0.00000
     24      16.9728      0.00000
     25      17.7023      0.00000
     26      18.5855      0.00000
     27      18.6703      0.00000
     28      19.2228      0.00000
     29      20.6415      0.00000
     30      24.6666      0.00000
     31      24.8850      0.00000
     32      24.9308      0.00000

 k-point    75 :       0.0000    0.0000    0.3684
  band No.  band energies     occupation 
      1      -7.3649      2.00000
      2      -6.4828      2.00000
      3      -2.9338      2.00000
      4       1.8953      2.00000
      5       2.8134      2.00000
      6       3.0574      2.00000
      7       4.2323      2.00000
      8       4.3339      2.00000
      9       4.6695      2.00000
     10       6.0226      0.00000
     11       6.1063      0.00000
     12       6.2409      0.00000
     13       9.7910      0.00000
     14      10.8400      0.00000
     15      11.0733      0.00000
     16      12.4783      0.00000
     17      12.8966      0.00000
     18      13.0679      0.00000
     19      13.1170      0.00000
     20      14.7787      0.00000
     21      14.8402      0.00000
     22      15.8578      0.00000
     23      16.1396      0.00000
     24      16.7830      0.00000
     25      17.4313      0.00000
     26      18.3097      0.00000
     27      18.3953      0.00000
     28      18.9225      0.00000
     29      21.0436      0.00000
     30      24.7705      0.00000
     31      24.9660      0.00000
     32      25.0126      0.00000

 k-point    76 :       0.0000    0.0000    0.3947
  band No.  band energies     occupation 
      1      -7.2961      2.00000
      2      -6.5894      2.00000
      3      -2.8651      2.00000
      4       1.8481      2.00000
      5       2.8419      2.00000
      6       3.0410      2.00000
      7       4.2508      2.00000
      8       4.3809      2.00000
      9       4.6520      2.00000
     10       6.0014      0.00000
     11       6.0809      0.00000
     12       6.1777      0.00000
     13       9.7554      0.00000
     14      10.8205      0.00000
     15      11.0091      0.00000
     16      12.6601      0.00000
     17      12.8097      0.00000
     18      13.1801      0.00000
     19      13.3354      0.00000
     20      14.9902      0.00000
     21      15.0351      0.00000
     22      15.6167      0.00000
     23      16.3502      0.00000
     24      16.6325      0.00000
     25      17.1797      0.00000
     26      18.0541      0.00000
     27      18.1375      0.00000
     28      18.6268      0.00000
     29      21.4505      0.00000
     30      24.5950      0.00000
     31      24.9933      0.00000
     32      25.0703      0.00000

 k-point    77 :       0.0000    0.0000    0.4211
  band No.  band energies     occupation 
      1      -7.2228      2.00000
      2      -6.6923      2.00000
      3      -2.8101      2.00000
      4       1.8099      2.00000
      5       2.8704      2.00000
      6       3.0220      2.00000
      7       4.2658      2.00000
      8       4.4264      2.00000
      9       4.6311      2.00000
     10       5.9888      0.00000
     11       6.0605      0.00000
     12       6.1220      0.00000
     13       9.7274      0.00000
     14      10.8109      0.00000
     15      10.9534      0.00000
     16      12.7406      0.00000
     17      12.8326      0.00000
     18      13.2584      0.00000
     19      13.5576      0.00000
     20      15.1845      0.00000
     21      15.2110      0.00000
     22      15.3512      0.00000
     23      16.5290      0.00000
     24      16.6011      0.00000
     25      16.9537      0.00000
     26      17.8282      0.00000
     27      17.9048      0.00000
     28      18.3371      0.00000
     29      21.8603      0.00000
     30      24.2594      0.00000
     31      25.0731      0.00000
     32      25.1323      0.00000

 k-point    78 :       0.0000    0.0000    0.4474
  band No.  band energies     occupation 
      1      -7.1450      2.00000
      2      -6.7911      2.00000
      3      -2.7700      2.00000
      4       1.7817      2.00000
      5       2.8986      2.00000
      6       3.0007      2.00000
      7       4.2769      2.00000
      8       4.4694      2.00000
      9       4.6066      2.00000
     10       5.9857      0.00000
     11       6.0456      0.00000
     12       6.0750      0.00000
     13       9.7073      0.00000
     14      10.8109      0.00000
     15      10.9065      0.00000
     16      12.6907      0.00000
     17      12.9893      0.00000
     18      13.2940      0.00000
     19      13.7727      0.00000
     20      15.1027      0.00000
     21      15.3472      0.00000
     22      15.3570      0.00000
     23      16.4770      0.00000
     24      16.7621      0.00000
     25      16.8562      0.00000
     26      17.6473      0.00000
     27      17.7091      0.00000
     28      18.0572      0.00000
     29      22.2716      0.00000
     30      23.8857      0.00000
     31      25.1391      0.00000
     32      25.1861      0.00000

 k-point    79 :       0.0000    0.0000    0.4737
  band No.  band energies     occupation 
      1      -7.0629      2.00000
      2      -6.8859      2.00000
      3      -2.7456      2.00000
      4       1.7645      2.00000
      5       2.9260      2.00000
      6       2.9774      2.00000
      7       4.2837      2.00000
      8       4.5093      2.00000
      9       4.5781      2.00000
     10       5.9926      0.00000
     11       6.0366      0.00000
     12       6.0374      0.00000
     13       9.6952      0.00000
     14      10.8207      0.00000
     15      10.8686      0.00000
     16      12.6605      0.00000
     17      13.1224      0.00000
     18      13.2820      0.00000
     19      13.9553      0.00000
     20      14.8997      0.00000
     21      15.4579      0.00000
     22      15.4584      0.00000
     23      16.4749      0.00000
     24      16.6152      0.00000
     25      17.0979      0.00000
     26      17.5325      0.00000
     27      17.5683      0.00000
     28      17.8011      0.00000
     29      22.6825      0.00000
     30      23.4935      0.00000
     31      25.1904      0.00000
     32      25.2189      0.00000

 k-point    80 :       0.0000    0.0000    0.5000
  band No.  band energies     occupation 
      1      -6.9766      2.00000
      2      -6.9765      2.00000
      3      -2.7374      2.00000
      4       1.7586      2.00000
      5       2.9524      2.00000
      6       2.9524      2.00000
      7       4.2860      2.00000
      8       4.5457      2.00000
      9       4.5457      2.00000
     10       6.0098      0.00000
     11       6.0099      0.00000
     12       6.0335      0.00000
     13       9.6912      0.00000
     14      10.8399      0.00000
     15      10.8399      0.00000
     16      12.6505      0.00000
     17      13.2229      0.00000
     18      13.2229      0.00000
     19      14.0372      0.00000
     20      14.8110      0.00000
     21      15.4966      0.00000
     22      15.4966      0.00000
     23      16.5200      0.00000
     24      16.5200      0.00000
     25      17.2362      0.00000
     26      17.5044      0.00000
     27      17.5044      0.00000
     28      17.6580      0.00000
     29      23.0909      0.00000
     30      23.0909      0.00000
     31      25.2129      0.00000
     32      25.2298      0.00000

 k-point    81 :       0.0000    0.0000    0.5000
  band No.  band energies     occupation 
      1      -6.9766      2.00000
      2      -6.9765      2.00000
      3      -2.7374      2.00000
      4       1.7586      2.00000
      5       2.9524      2.00000
      6       2.9524      2.00000
      7       4.2860      2.00000
      8       4.5457      2.00000
      9       4.5457      2.00000
     10       6.0098      0.00000
     11       6.0099      0.00000
     12       6.0335      0.00000
     13       9.6912      0.00000
     14      10.8399      0.00000
     15      10.8399      0.00000
     16      12.6505      0.00000
     17      13.2229      0.00000
     18      13.2229      0.00000
     19      14.0372      0.00000
     20      14.8110      0.00000
     21      15.4966      0.00000
     22      15.4966      0.00000
     23      16.5200      0.00000
     24      16.5200      0.00000
     25      17.2362      0.00000
     26      17.5044      0.00000
     27      17.5044      0.00000
     28      17.6580      0.00000
     29      23.0909      0.00000
     30      23.0909      0.00000
     31      25.2134      0.00000
     32      25.2289      0.00000

 k-point    82 :       0.0263    0.0000    0.5000
  band No.  band energies     occupation 
      1      -6.9732      2.00000
      2      -6.9724      2.00000
      3      -2.7471      2.00000
      4       1.7568      2.00000
      5       2.9440      2.00000
      6       2.9492      2.00000
      7       4.2508      2.00000
      8       4.4995      2.00000
      9       4.5350      2.00000
     10       6.0202      0.00000
     11       6.0528      0.00000
     12       6.0951      0.00000
     13       9.7043      0.00000
     14      10.8152      0.00000
     15      10.8579      0.00000
     16      12.6918      0.00000
     17      13.1847      0.00000
     18      13.2109      0.00000
     19      14.0097      0.00000
     20      14.8558      0.00000
     21      15.4633      0.00000
     22      15.5153      0.00000
     23      16.4808      0.00000
     24      16.5458      0.00000
     25      17.1258      0.00000
     26      17.5375      0.00000
     27      17.6674      0.00000
     28      17.7304      0.00000
     29      23.0891      0.00000
     30      23.0925      0.00000
     31      24.7945      0.00000
     32      25.0100      0.00000

 k-point    83 :       0.0526    0.0000    0.5000
  band No.  band energies     occupation 
      1      -6.9632      2.00000
      2      -6.9598      2.00000
      3      -2.7758      2.00000
      4       1.7508      2.00000
      5       2.9184      2.00000
      6       2.9382      2.00000
      7       4.1461      2.00000
      8       4.3981      2.00000
      9       4.5042      2.00000
     10       6.0631      0.00000
     11       6.1343      0.00000
     12       6.2777      0.00000
     13       9.7430      0.00000
     14      10.7501      0.00000
     15      10.9110      0.00000
     16      12.7801      0.00000
     17      13.1138      0.00000
     18      13.1764      0.00000
     19      13.9364      0.00000
     20      14.9706      0.00000
     21      15.3680      0.00000
     22      15.5602      0.00000
     23      16.3951      0.00000
     24      16.6189      0.00000
     25      17.0035      0.00000
     26      17.6301      0.00000
     27      17.9117      0.00000
     28      17.9617      0.00000
     29      23.0783      0.00000
     30      23.0933      0.00000
     31      24.2790      0.00000
     32      24.5417      0.00000

 k-point    84 :       0.0789    0.0000    0.5000
  band No.  band energies     occupation 
      1      -6.9468      2.00000
      2      -6.9390      2.00000
      3      -2.8228      2.00000
      4       1.7389      2.00000
      5       2.8730      2.00000
      6       2.9156      2.00000
      7       3.9939      2.00000
      8       4.2893      2.00000
      9       4.4570      2.00000
     10       6.1351      0.00000
     11       6.2486      0.00000
     12       6.5206      0.00000
     13       9.8052      0.00000
     14      10.6647      0.00000
     15      10.9971      0.00000
     16      12.7597      0.00000
     17      13.1226      0.00000
     18      13.1815      0.00000
     19      13.8371      0.00000
     20      15.1111      0.00000
     21      15.2253      0.00000
     22      15.6068      0.00000
     23      16.3185      0.00000
     24      16.7138      0.00000
     25      16.9779      0.00000
     26      17.7674      0.00000
     27      18.1736      0.00000
     28      18.2913      0.00000
     29      23.0331      0.00000
     30      23.0723      0.00000
     31      23.7532      0.00000
     32      24.0633      0.00000

 k-point    85 :       0.1053    0.0000    0.5000
  band No.  band energies     occupation 
      1      -6.9243      2.00000
      2      -6.9101      2.00000
      3      -2.8870      2.00000
      4       1.7181      2.00000
      5       2.8017      2.00000
      6       2.8779      2.00000
      7       3.8427      2.00000
      8       4.1828      2.00000
      9       4.3995      2.00000
     10       6.2277      0.00000
     11       6.3888      0.00000
     12       6.7824      0.00000
     13       9.8862      0.00000
     14      10.5806      0.00000
     15      11.1118      0.00000
     16      12.6164      0.00000
     17      13.0547      0.00000
     18      13.4136      0.00000
     19      13.7325      0.00000
     20      15.0527      0.00000
     21      15.2288      0.00000
     22      15.6346      0.00000
     23      16.2969      0.00000
     24      16.7986      0.00000
     25      17.0936      0.00000
     26      17.9337      0.00000
     27      18.4822      0.00000
     28      18.6468      0.00000
     29      22.8756      0.00000
     30      22.9320      0.00000
     31      23.2926      0.00000
     32      23.6726      0.00000

 k-point    86 :       0.1316    0.0000    0.5000
  band No.  band energies     occupation 
      1      -6.8960      2.00000
      2      -6.8732      2.00000
      3      -2.9668      2.00000
      4       1.6841      2.00000
      5       2.6973      2.00000
      6       2.8256      2.00000
      7       3.7308      2.00000
      8       4.0784      2.00000
      9       4.3384      2.00000
     10       6.3328      0.00000
     11       6.5466      0.00000
     12       7.0372      0.00000
     13       9.9753      0.00000
     14      10.5195      0.00000
     15      11.2473      0.00000
     16      12.4610      0.00000
     17      12.9782      0.00000
     18      13.6362      0.00000
     19      13.7123      0.00000
     20      14.8739      0.00000
     21      15.2782      0.00000
     22      15.6377      0.00000
     23      16.3661      0.00000
     24      16.9134      0.00000
     25      17.3026      0.00000
     26      18.1154      0.00000
     27      18.8250      0.00000
     28      19.0156      0.00000
     29      22.4836      0.00000
     30      22.5657      0.00000
     31      22.9118      0.00000
     32      23.3008      0.00000

 k-point    87 :       0.1579    0.0000    0.5000
  band No.  band energies     occupation 
      1      -6.8624      2.00000
      2      -6.8287      2.00000
      3      -3.0605      2.00000
      4       1.6304      2.00000
      5       2.5636      2.00000
      6       2.7632      2.00000
      7       3.6694      2.00000
      8       3.9782      2.00000
      9       4.2804      2.00000
     10       6.4440      0.00000
     11       6.7146      0.00000
     12       7.2659      0.00000
     13      10.0496      0.00000
     14      10.5094      0.00000
     15      11.3907      0.00000
     16      12.3351      0.00000
     17      12.9021      0.00000
     18      13.5709      0.00000
     19      14.0300      0.00000
     20      14.7066      0.00000
     21      15.2624      0.00000
     22      15.6195      0.00000
     23      16.5321      0.00000
     24      17.0831      0.00000
     25      17.5552      0.00000
     26      18.2999      0.00000
     27      19.1929      0.00000
     28      19.3851      0.00000
     29      21.9648      0.00000
     30      22.1100      0.00000
     31      22.4405      0.00000
     32      22.8330      0.00000

 k-point    88 :       0.1842    0.0000    0.5000
  band No.  band energies     occupation 
      1      -6.8242      2.00000
      2      -6.7769      2.00000
      3      -3.1659      2.00000
      4       1.5492      2.00000
      5       2.4211      2.00000
      6       2.6948      2.00000
      7       3.6453      2.00000
      8       3.8865      2.00000
      9       4.2332      2.00000
     10       6.5559      0.00000
     11       6.8867      0.00000
     12       7.4527      0.00000
     13      10.0840      0.00000
     14      10.5757      0.00000
     15      11.5229      0.00000
     16      12.2624      0.00000
     17      12.8416      0.00000
     18      13.5413      0.00000
     19      14.3071      0.00000
     20      14.6049      0.00000
     21      15.2133      0.00000
     22      15.6017      0.00000
     23      16.7677      0.00000
     24      17.3001      0.00000
     25      17.8312      0.00000
     26      18.4723      0.00000
     27      19.5762      0.00000
     28      19.7331      0.00000
     29      21.4330      0.00000
     30      21.6369      0.00000
     31      21.9369      0.00000
     32      22.3759      0.00000

 k-point    89 :       0.2105    0.0000    0.5000
  band No.  band energies     occupation 
      1      -6.7822      2.00000
      2      -6.7183      2.00000
      3      -3.2809      2.00000
      4       1.4346      2.00000
      5       2.2932      2.00000
      6       2.6229      2.00000
      7       3.6317      2.00000
      8       3.8116      2.00000
      9       4.2063      2.00000
     10       6.6641      0.00000
     11       7.0573      0.00000
     12       7.5850      0.00000
     13      10.0853      0.00000
     14      10.7062      0.00000
     15      11.6284      0.00000
     16      12.2488      0.00000
     17      12.8210      0.00000
     18      13.5603      0.00000
     19      14.3148      0.00000
     20      14.7616      0.00000
     21      15.1580      0.00000
     22      15.6321      0.00000
     23      17.0447      0.00000
     24      17.5533      0.00000
     25      18.1189      0.00000
     26      18.6118      0.00000
     27      19.9375      0.00000
     28      20.0199      0.00000
     29      20.9148      0.00000
     30      21.2009      0.00000
     31      21.4681      0.00000
     32      21.9731      0.00000

 k-point    90 :       0.2368    0.0000    0.5000
  band No.  band energies     occupation 
      1      -6.7374      2.00000
      2      -6.6535      2.00000
      3      -3.4033      2.00000
      4       1.2880      2.00000
      5       2.1925      2.00000
      6       2.5497      2.00000
      7       3.5992      2.00000
      8       3.7640      2.00000
      9       4.2114      2.00000
     10       6.7649      0.00000
     11       7.2216      0.00000
     12       7.6560      0.00000
     13      10.0774      0.00000
     14      10.8627      0.00000
     15      11.7168      0.00000
     16      12.2740      0.00000
     17      12.8637      0.00000
     18      13.6393      0.00000
     19      14.2125      0.00000
     20      14.9426      0.00000
     21      15.1166      0.00000
     22      15.7912      0.00000
     23      17.3453      0.00000
     24      17.8348      0.00000
     25      18.4059      0.00000
     26      18.6876      0.00000
     27      19.9616      0.00000
     28      20.3220      0.00000
     29      20.4737      0.00000
     30      20.8128      0.00000
     31      21.1879      0.00000
     32      21.6996      0.00000

 k-point    91 :       0.2632    0.0000    0.5000
  band No.  band energies     occupation 
      1      -6.6906      2.00000
      2      -6.5832      2.00000
      3      -3.5306      2.00000
      4       1.1194      2.00000
      5       2.1188      2.00000
      6       2.4767      2.00000
      7       3.5429      2.00000
      8       3.7353      2.00000
      9       4.2567      2.00000
     10       6.8546      0.00000
     11       7.3749      0.00000
     12       7.6668      0.00000
     13      10.0733      0.00000
     14      11.0057      0.00000
     15      11.8205      0.00000
     16      12.3253      0.00000
     17      12.9661      0.00000
     18      13.7858      0.00000
     19      14.1205      0.00000
     20      14.9950      0.00000
     21      15.1067      0.00000
     22      16.1111      0.00000
     23      17.6570      0.00000
     24      18.1390      0.00000
     25      18.6542      0.00000
     26      18.6735      0.00000
     27      19.6371      0.00000
     28      19.9431      0.00000
     29      20.3771      0.00000
     30      20.7967      0.00000
     31      21.1208      0.00000
     32      21.7174      0.00000

 k-point    92 :       0.2895    0.0000    0.5000
  band No.  band energies     occupation 
      1      -6.6433      2.00000
      2      -6.5087      2.00000
      3      -3.6602      2.00000
      4       0.9422      2.00000
      5       2.0661      2.00000
      6       2.4054      2.00000
      7       3.4791      2.00000
      8       3.7074      2.00000
      9       4.3406      2.00000
     10       6.9279      0.00000
     11       7.5092      0.00000
     12       7.6314      0.00000
     13      10.0767      0.00000
     14      11.0972      0.00000
     15      11.9718      0.00000
     16      12.4189      0.00000
     17      13.1025      0.00000
     18      13.9694      0.00000
     19      14.0766      0.00000
     20      14.9951      0.00000
     21      15.1154      0.00000
     22      16.5291      0.00000
     23      17.9616      0.00000
     24      18.4579      0.00000
     25      18.5131      0.00000
     26      18.8153      0.00000
     27      19.2119      0.00000
     28      19.5196      0.00000
     29      20.0535      0.00000
     30      21.0478      0.00000
     31      21.1893      0.00000
     32      22.0135      0.00000

 k-point    93 :       0.3158    0.0000    0.5000
  band No.  band energies     occupation 
      1      -6.5966      2.00000
      2      -6.4312      2.00000
      3      -3.7896      2.00000
      4       0.7676      2.00000
      5       2.0286      2.00000
      6       2.3373      2.00000
      7       3.4173      2.00000
      8       3.6762      2.00000
      9       4.4550      2.00000
     10       6.9759      0.00000
     11       7.5344      0.00000
     12       7.6563      0.00000
     13      10.0869      0.00000
     14      11.1220      0.00000
     15      12.1833      0.00000
     16      12.5663      0.00000
     17      13.2582      0.00000
     18      13.9720      0.00000
     19      14.2740      0.00000
     20      15.0117      0.00000
     21      15.1382      0.00000
     22      16.9946      0.00000
     23      18.1556      0.00000
     24      18.2952      0.00000
     25      18.6506      0.00000
     26      18.7337      0.00000
     27      18.9115      0.00000
     28      19.1780      0.00000
     29      19.9747      0.00000
     30      21.0766      0.00000
     31      21.5240      0.00000
     32      22.2193      0.00000

 k-point    94 :       0.3421    0.0000    0.5000
  band No.  band energies     occupation 
      1      -6.5520      2.00000
      2      -6.3525      2.00000
      3      -3.9156      2.00000
      4       0.6041      2.00000
      5       2.0023      2.00000
      6       2.2733      2.00000
      7       3.3614      2.00000
      8       3.6442      2.00000
      9       4.5916      2.00000
     10       6.9801      0.00000
     11       7.4645      0.00000
     12       7.7561      0.00000
     13      10.1018      0.00000
     14      11.0968      0.00000
     15      12.4431      0.00000
     16      12.7589      0.00000
     17      13.4329      0.00000
     18      13.9433      0.00000
     19      14.5098      0.00000
     20      15.0853      0.00000
     21      15.1867      0.00000
     22      17.4759      0.00000
     23      17.8998      0.00000
     24      18.0921      0.00000
     25      18.3267      0.00000
     26      18.5861      0.00000
     27      19.0179      0.00000
     28      19.1939      0.00000
     29      20.1610      0.00000
     30      21.0756      0.00000
     31      21.8437      0.00000
     32      21.8721      0.00000

 k-point    95 :       0.3684    0.0000    0.5000
  band No.  band energies     occupation 
      1      -6.5109      2.00000
      2      -6.2752      2.00000
      3      -4.0347      2.00000
      4       0.4576      2.00000
      5       1.9850      2.00000
      6       2.2143      2.00000
      7       3.3129      2.00000
      8       3.6140      2.00000
      9       4.7434      2.00000
     10       6.9181      0.00000
     11       7.4216      0.00000
     12       7.8425      0.00000
     13      10.1185      0.00000
     14      11.0468      0.00000
     15      12.7313      0.00000
     16      12.9748      0.00000
     17      13.6297      0.00000
     18      13.9376      0.00000
     19      14.6748      0.00000
     20      15.2382      0.00000
     21      15.2742      0.00000
     22      17.5338      0.00000
     23      17.6785      0.00000
     24      17.8345      0.00000
     25      18.1076      0.00000
     26      18.2997      0.00000
     27      19.2265      0.00000
     28      19.5660      0.00000
     29      20.4477      0.00000
     30      20.8769      0.00000
     31      21.7621      0.00000
     32      22.1430      0.00000

 k-point    96 :       0.3947    0.0000    0.5000
  band No.  band energies     occupation 
      1      -6.4747      2.00000
      2      -6.2022      2.00000
      3      -4.1431      2.00000
      4       0.3325      2.00000
      5       1.9755      2.00000
      6       2.1611      2.00000
      7       3.2726      2.00000
      8       3.5876      2.00000
      9       4.9039      2.00000
     10       6.7950      0.00000
     11       7.4164      0.00000
     12       7.9110      0.00000
     13      10.1347      0.00000
     14      10.9904      0.00000
     15      13.0278      0.00000
     16      13.1853      0.00000
     17      13.8383      0.00000
     18      13.9817      0.00000
     19      14.7806      0.00000
     20      15.3727      0.00000
     21      15.4314      0.00000
     22      17.1993      0.00000
     23      17.2574      0.00000
     24      17.5472      0.00000
     25      17.9412      0.00000
     26      18.5815      0.00000
     27      19.5465      0.00000
     28      19.9500      0.00000
     29      20.4346      0.00000
     30      20.8391      0.00000
     31      21.8359      0.00000
     32      22.3961      0.00000

 k-point    97 :       0.4211    0.0000    0.5000
  band No.  band energies     occupation 
      1      -6.4450      2.00000
      2      -6.1377      2.00000
      3      -4.2359      2.00000
      4       0.2319      2.00000
      5       1.9733      2.00000
      6       2.1142      2.00000
      7       3.2409      2.00000
      8       3.5661      2.00000
      9       5.0657      2.00000
     10       6.6416      0.00000
     11       7.4300      0.00000
     12       7.9620      0.00000
     13      10.1485      0.00000
     14      10.9388      0.00000
     15      13.3013      0.00000
     16      13.3620      0.00000
     17      13.9864      0.00000
     18      14.1714      0.00000
     19      14.8803      0.00000
     20      15.4811      0.00000
     21      15.5243      0.00000
     22      16.8080      0.00000
     23      16.9026      0.00000
     24      17.3456      0.00000
     25      17.6658      0.00000
     26      19.0916      0.00000
     27      19.8111      0.00000
     28      20.0661      0.00000
     29      20.3778      0.00000
     30      21.1734      0.00000
     31      21.8464      0.00000
     32      22.3957      0.00000

 k-point    98 :       0.4474    0.0000    0.5000
  band No.  band energies     occupation 
      1      -6.4227      2.00000
      2      -6.0862      2.00000
      3      -4.3079      2.00000
      4       0.1584      2.00000
      5       1.9781      2.00000
      6       2.0742      2.00000
      7       3.2180      2.00000
      8       3.5503      2.00000
      9       5.2163      2.00000
     10       6.4885      0.00000
     11       7.4470      0.00000
     12       7.9968      0.00000
     13      10.1587      0.00000
     14      10.8986      0.00000
     15      13.4590      0.00000
     16      13.5315      0.00000
     17      14.1556      0.00000
     18      14.4486      0.00000
     19      14.9973      0.00000
     20      15.3572      0.00000
     21      15.6772      0.00000
     22      16.4174      0.00000
     23      16.5846      0.00000
     24      17.1558      0.00000
     25      17.6712      0.00000
     26      19.3348      0.00000
     27      19.7525      0.00000
     28      20.3177      0.00000
     29      20.7607      0.00000
     30      21.4851      0.00000
     31      21.6685      0.00000
     32      22.2627      0.00000

 k-point    99 :       0.4737    0.0000    0.5000
  band No.  band energies     occupation 
      1      -6.4090      2.00000
      2      -6.0528      2.00000
      3      -4.3539      2.00000
      4       0.1137      2.00000
      5       1.9890      2.00000
      6       2.0421      2.00000
      7       3.2043      2.00000
      8       3.5407      2.00000
      9       5.3330      2.00000
     10       6.3676      0.00000
     11       7.4594      0.00000
     12       8.0169      0.00000
     13      10.1649      0.00000
     14      10.8732      0.00000
     15      13.5174      0.00000
     16      13.6495      0.00000
     17      14.4051      0.00000
     18      14.7134      0.00000
     19      15.0797      0.00000
     20      15.1436      0.00000
     21      15.8005      0.00000
     22      16.1136      0.00000
     23      16.3331      0.00000
     24      16.9422      0.00000
     25      17.9301      0.00000
     26      18.9636      0.00000
     27      20.1782      0.00000
     28      20.6817      0.00000
     29      21.0479      0.00000
     30      21.3863      0.00000
     31      21.7259      0.00000
     32      21.9128      0.00000

 k-point   100 :       0.5000    0.0000    0.5000
  band No.  band energies     occupation 
      1      -6.4043      2.00000
      2      -6.0411      2.00000
      3      -4.3697      2.00000
      4       0.0986      2.00000
      5       1.9990      2.00000
      6       2.0250      2.00000
      7       3.1997      2.00000
      8       3.5375      2.00000
      9       5.3795      2.00000
     10       6.3193      0.00000
     11       7.4639      0.00000
     12       8.0235      0.00000
     13      10.1670      0.00000
     14      10.8646      0.00000
     15      13.5336      0.00000
     16      13.6860      0.00000
     17      14.6084      0.00000
     18      14.8439      0.00000
     19      14.8884      0.00000
     20      15.1858      0.00000
     21      15.8012      0.00000
     22      16.0344      0.00000
     23      16.2275      0.00000
     24      16.8476      0.00000
     25      18.1401      0.00000
     26      18.7114      0.00000
     27      20.4584      0.00000
     28      20.8492      0.00000
     29      21.1561      0.00000
     30      21.2043      0.00000
     31      21.7661      0.00000
     32      21.7686      0.00000

 k-point   101 :       0.5000    0.0000    0.5000
  band No.  band energies     occupation 
      1      -6.4043      2.00000
      2      -6.0411      2.00000
      3      -4.3697      2.00000
      4       0.0986      2.00000
      5       1.9990      2.00000
      6       2.0250      2.00000
      7       3.1997      2.00000
      8       3.5375      2.00000
      9       5.3795      2.00000
     10       6.3193      0.00000
     11       7.4639      0.00000
     12       8.0235      0.00000
     13      10.1670      0.00000
     14      10.8646      0.00000
     15      13.5336      0.00000
     16      13.6860      0.00000
     17      14.6084      0.00000
     18      14.8439      0.00000
     19      14.8884      0.00000
     20      15.1858      0.00000
     21      15.8012      0.00000
     22      16.0344      0.00000
     23      16.2275      0.00000
     24      16.8476      0.00000
     25      18.1401      0.00000
     26      18.7114      0.00000
     27      20.4584      0.00000
     28      20.8492      0.00000
     29      21.1561      0.00000
     30      21.2043      0.00000
     31      21.7661      0.00000
     32      21.7686      0.00000

 k-point   102 :       0.4912    0.0175    0.5000
  band No.  band energies     occupation 
      1      -6.4032      2.00000
      2      -6.0411      2.00000
      3      -4.3701      2.00000
      4       0.1003      2.00000
      5       1.9869      2.00000
      6       2.0069      2.00000
      7       3.2212      2.00000
      8       3.5497      2.00000
      9       5.3803      2.00000
     10       6.3193      0.00000
     11       7.4592      0.00000
     12       8.0174      0.00000
     13      10.1699      0.00000
     14      10.8660      0.00000
     15      13.5419      0.00000
     16      13.6880      0.00000
     17      14.5563      0.00000
     18      14.8468      0.00000
     19      14.8730      0.00000
     20      15.2005      0.00000
     21      15.8221      0.00000
     22      16.0797      0.00000
     23      16.1725      0.00000
     24      16.9096      0.00000
     25      18.1413      0.00000
     26      18.7101      0.00000
     27      20.4512      0.00000
     28      20.8112      0.00000
     29      21.1626      0.00000
     30      21.1944      0.00000
     31      21.7730      0.00000
     32      21.7960      0.00000

 k-point   103 :       0.4825    0.0351    0.5000
  band No.  band energies     occupation 
      1      -6.3997      2.00000
      2      -6.0412      2.00000
      3      -4.3714      2.00000
      4       0.1052      2.00000
      5       1.9521      2.00000
      6       1.9564      2.00000
      7       3.2819      2.00000
      8       3.5848      2.00000
      9       5.3828      2.00000
     10       6.3194      0.00000
     11       7.4451      0.00000
     12       7.9992      0.00000
     13      10.1790      0.00000
     14      10.8706      0.00000
     15      13.5648      0.00000
     16      13.6925      0.00000
     17      14.4532      0.00000
     18      14.7909      0.00000
     19      14.8331      0.00000
     20      15.2754      0.00000
     21      15.8710      0.00000
     22      16.0574      0.00000
     23      16.1979      0.00000
     24      17.0545      0.00000
     25      18.1454      0.00000
     26      18.7063      0.00000
     27      20.4287      0.00000
     28      20.7139      0.00000
     29      21.1702      0.00000
     30      21.1761      0.00000
     31      21.7802      0.00000
     32      21.8735      0.00000

 k-point   104 :       0.4737    0.0526    0.5000
  band No.  band energies     occupation 
      1      -6.3939      2.00000
      2      -6.0413      2.00000
      3      -4.3734      2.00000
      4       0.1133      2.00000
      5       1.8821      2.00000
      6       1.8979      2.00000
      7       3.3733      2.00000
      8       3.6395      2.00000
      9       5.3869      2.00000
     10       6.3194      0.00000
     11       7.4218      0.00000
     12       7.9691      0.00000
     13      10.1949      0.00000
     14      10.8791      0.00000
     15      13.5956      0.00000
     16      13.6947      0.00000
     17      14.3486      0.00000
     18      14.6669      0.00000
     19      14.7826      0.00000
     20      15.4055      0.00000
     21      15.8437      0.00000
     22      16.0239      0.00000
     23      16.3590      0.00000
     24      17.2335      0.00000
     25      18.1530      0.00000
     26      18.6998      0.00000
     27      20.3896      0.00000
     28      20.5834      0.00000
     29      21.1435      0.00000
     30      21.1907      0.00000
     31      21.7780      0.00000
     32      21.9729      0.00000

 k-point   105 :       0.4649    0.0702    0.5000
  band No.  band energies     occupation 
      1      -6.3859      2.00000
      2      -6.0415      2.00000
      3      -4.3763      2.00000
      4       0.1247      2.00000
      5       1.7928      2.00000
      6       1.8285      2.00000
      7       3.4864      2.00000
      8       3.7094      2.00000
      9       5.3926      2.00000
     10       6.3189      0.00000
     11       7.3898      0.00000
     12       7.9274      0.00000
     13      10.2187      0.00000
     14      10.8925      0.00000
     15      13.6199      0.00000
     16      13.6876      0.00000
     17      14.2677      0.00000
     18      14.5118      0.00000
     19      14.7341      0.00000
     20      15.5615      0.00000
     21      15.7089      0.00000
     22      16.1152      0.00000
     23      16.5425      0.00000
     24      17.4250      0.00000
     25      18.1659      0.00000
     26      18.6908      0.00000
     27      20.3334      0.00000
     28      20.4363      0.00000
     29      21.1246      0.00000
     30      21.2052      0.00000
     31      21.7591      0.00000
     32      22.0593      0.00000

 k-point   106 :       0.4561    0.0877    0.5000
  band No.  band energies     occupation 
      1      -6.3757      2.00000
      2      -6.0419      2.00000
      3      -4.3800      2.00000
      4       0.1393      2.00000
      5       1.6954      2.00000
      6       1.7482      2.00000
      7       3.6144      2.00000
      8       3.7901      2.00000
      9       5.3999      2.00000
     10       6.3178      0.00000
     11       7.3498      0.00000
     12       7.8747      0.00000
     13      10.2516      0.00000
     14      10.9122      0.00000
     15      13.6159      0.00000
     16      13.6639      0.00000
     17      14.2291      0.00000
     18      14.3512      0.00000
     19      14.6935      0.00000
     20      15.5745      0.00000
     21      15.7296      0.00000
     22      16.2296      0.00000
     23      16.7367      0.00000
     24      17.6169      0.00000
     25      18.1882      0.00000
     26      18.6796      0.00000
     27      20.2615      0.00000
     28      20.2817      0.00000
     29      21.1194      0.00000
     30      21.2190      0.00000
     31      21.7235      0.00000
     32      22.0845      0.00000

 k-point   107 :       0.4474    0.1053    0.5000
  band No.  band energies     occupation 
      1      -6.3635      2.00000
      2      -6.0425      2.00000
      3      -4.3846      2.00000
      4       0.1571      2.00000
      5       1.5947      2.00000
      6       1.6606      2.00000
      7       3.7522      2.00000
      8       3.8777      2.00000
      9       5.4088      2.00000
     10       6.3153      0.00000
     11       7.3026      0.00000
     12       7.8119      0.00000
     13      10.2947      0.00000
     14      10.9396      0.00000
     15      13.5684      0.00000
     16      13.6192      0.00000
     17      14.1472      0.00000
     18      14.2947      0.00000
     19      14.6555      0.00000
     20      15.4684      0.00000
     21      15.9044      0.00000
     22      16.3490      0.00000
     23      16.9345      0.00000
     24      17.7950      0.00000
     25      18.2307      0.00000
     26      18.6668      0.00000
     27      20.1256      0.00000
     28      20.1776      0.00000
     29      21.1293      0.00000
     30      21.2309      0.00000
     31      21.6756      0.00000
     32      22.0545      0.00000

 k-point   108 :       0.4386    0.1228    0.5000
  band No.  band energies     occupation 
      1      -6.3493      2.00000
      2      -6.0433      2.00000
      3      -4.3900      2.00000
      4       0.1781      2.00000
      5       1.4939      2.00000
      6       1.5687      2.00000
      7       3.8967      2.00000
      8       3.9687      2.00000
      9       5.4192      2.00000
     10       6.3107      0.00000
     11       7.2496      0.00000
     12       7.7401      0.00000
     13      10.3487      0.00000
     14      10.9759      0.00000
     15      13.4847      0.00000
     16      13.5537      0.00000
     17      13.9829      0.00000
     18      14.3779      0.00000
     19      14.6034      0.00000
     20      15.4114      0.00000
     21      16.0831      0.00000
     22      16.4671      0.00000
     23      17.1296      0.00000
     24      17.9346      0.00000
     25      18.3153      0.00000
     26      18.6540      0.00000
     27      19.9721      0.00000
     28      20.0864      0.00000
     29      21.1531      0.00000
     30      21.2389      0.00000
     31      21.6210      0.00000
     32      22.0058      0.00000

 k-point   109 :       0.4298    0.1404    0.5000
  band No.  band energies     occupation 
      1      -6.3333      2.00000
      2      -6.0446      2.00000
      3      -4.3962      2.00000
      4       0.2021      2.00000
      5       1.3954      2.00000
      6       1.4749      2.00000
      7       4.0453      2.00000
      8       4.0607      2.00000
      9       5.4313      2.00000
     10       6.3029      0.00000
     11       7.1925      0.00000
     12       7.6606      0.00000
     13      10.4141      0.00000
     14      11.0222      0.00000
     15      13.3799      0.00000
     16      13.4713      0.00000
     17      13.8166      0.00000
     18      14.5067      0.00000
     19      14.5215      0.00000
     20      15.4169      0.00000
     21      16.2640      0.00000
     22      16.5795      0.00000
     23      17.3155      0.00000
     24      18.0169      0.00000
     25      18.4581      0.00000
     26      18.6440      0.00000
     27      19.8256      0.00000
     28      19.9929      0.00000
     29      21.1880      0.00000
     30      21.2405      0.00000
     31      21.5655      0.00000
     32      21.9471      0.00000

 k-point   110 :       0.4211    0.1579    0.5000
  band No.  band energies     occupation 
      1      -6.3156      2.00000
      2      -6.0464      2.00000
      3      -4.4031      2.00000
      4       0.2292      2.00000
      5       1.3008      2.00000
      6       1.3810      2.00000
      7       4.1511      2.00000
      8       4.1963      2.00000
      9       5.4448      2.00000
     10       6.2907      0.00000
     11       7.1332      0.00000
     12       7.5752      0.00000
     13      10.4911      0.00000
     14      11.0793      0.00000
     15      13.2634      0.00000
     16      13.3772      0.00000
     17      13.6573      0.00000
     18      14.4087      0.00000
     19      14.6633      0.00000
     20      15.4808      0.00000
     21      16.4455      0.00000
     22      16.6825      0.00000
     23      17.4831      0.00000
     24      18.0576      0.00000
     25      18.6395      0.00000
     26      18.6423      0.00000
     27      19.6911      0.00000
     28      19.9019      0.00000
     29      21.2295      0.00000
     30      21.2330      0.00000
     31      21.5160      0.00000
     32      21.8647      0.00000

 k-point   111 :       0.4123    0.1754    0.5000
  band No.  band energies     occupation 
      1      -6.2965      2.00000
      2      -6.0487      2.00000
      3      -4.4108      2.00000
      4       0.2592      2.00000
      5       1.2113      2.00000
      6       1.2885      2.00000
      7       4.2382      2.00000
      8       4.3484      2.00000
      9       5.4597      2.00000
     10       6.2723      0.00000
     11       7.0743      0.00000
     12       7.4856      0.00000
     13      10.5792      0.00000
     14      11.1477      0.00000
     15      13.1394      0.00000
     16      13.2760      0.00000
     17      13.5093      0.00000
     18      14.2748      0.00000
     19      14.8397      0.00000
     20      15.5879      0.00000
     21      16.6265      0.00000
     22      16.7733      0.00000
     23      17.6203      0.00000
     24      18.0768      0.00000
     25      18.6566      0.00000
     26      18.8320      0.00000
     27      19.5774      0.00000
     28      19.8184      0.00000
     29      21.2120      0.00000
     30      21.2675      0.00000
     31      21.4843      0.00000
     32      21.7378      0.00000

 k-point   112 :       0.4035    0.1930    0.5000
  band No.  band energies     occupation 
      1      -6.2763      2.00000
      2      -6.0518      2.00000
      3      -4.4191      2.00000
      4       0.2921      2.00000
      5       1.1278      2.00000
      6       1.1987      2.00000
      7       4.3201      2.00000
      8       4.5004      2.00000
      9       5.4758      2.00000
     10       6.2457      0.00000
     11       7.0185      0.00000
     12       7.3938      0.00000
     13      10.6778      0.00000
     14      11.2277      0.00000
     15      13.0089      0.00000
     16      13.1717      0.00000
     17      13.3762      0.00000
     18      14.1293      0.00000
     19      15.0313      0.00000
     20      15.7234      0.00000
     21      16.8053      0.00000
     22      16.8492      0.00000
     23      17.7136      0.00000
     24      18.0820      0.00000
     25      18.6949      0.00000
     26      19.0096      0.00000
     27      19.5033      0.00000
     28      19.7488      0.00000
     29      21.1650      0.00000
     30      21.2839      0.00000
     31      21.4897      0.00000
     32      21.5779      0.00000

 k-point   113 :       0.3947    0.2105    0.5000
  band No.  band energies     occupation 
      1      -6.2552      2.00000
      2      -6.0557      2.00000
      3      -4.4278      2.00000
      4       0.3278      2.00000
      5       1.0510      2.00000
      6       1.1126      2.00000
      7       4.3954      2.00000
      8       4.6514      2.00000
      9       5.4927      1.99999
     10       6.2091      0.00000
     11       6.9688      0.00000
     12       7.3020      0.00000
     13      10.7856      0.00000
     14      11.3191      0.00000
     15      12.8729      0.00000
     16      13.0671      0.00000
     17      13.2606      0.00000
     18      13.9785      0.00000
     19      15.2350      0.00000
     20      15.8759      0.00000
     21      16.9084      0.00000
     22      16.9799      0.00000
     23      17.7557      0.00000
     24      18.0743      0.00000
     25      18.7565      0.00000
     26      19.1250      0.00000
     27      19.5150      0.00000
     28      19.7019      0.00000
     29      21.0583      0.00000
     30      21.2733      0.00000
     31      21.4423      0.00000
     32      21.5381      0.00000

 k-point   114 :       0.3860    0.2281    0.5000
  band No.  band energies     occupation 
      1      -6.2335      2.00000
      2      -6.0606      2.00000
      3      -4.4366      2.00000
      4       0.3659      2.00000
      5       0.9816      2.00000
      6       1.0312      2.00000
      7       4.4627      2.00000
      8       4.8004      2.00000
      9       5.5098      1.99994
     10       6.1609      0.00000
     11       6.9274      0.00000
     12       7.2125      0.00000
     13      10.9007      0.00000
     14      11.4213      0.00000
     15      12.7334      0.00000
     16      12.9646      0.00000
     17      13.1636      0.00000
     18      13.8264      0.00000
     19      15.4486      0.00000
     20      16.0362      0.00000
     21      16.9495      0.00000
     22      17.1470      0.00000
     23      17.7510      0.00000
     24      18.0537      0.00000
     25      18.8262      0.00000
     26      19.1495      0.00000
     27      19.6400      0.00000
     28      19.6903      0.00000
     29      20.8708      0.00000
     30      21.2523      0.00000
     31      21.3764      0.00000
     32      21.6105      0.00000

 k-point   115 :       0.3772    0.2456    0.5000
  band No.  band energies     occupation 
      1      -6.2116      2.00000
      2      -6.0666      2.00000
      3      -4.4454      2.00000
      4       0.4063      2.00000
      5       0.9199      2.00000
      6       0.9554      2.00000
      7       4.5210      2.00000
      8       4.9465      2.00000
      9       5.5262      1.99961
     10       6.1009      0.00000
     11       6.8958      0.00000
     12       7.1278      0.00000
     13      11.0204      0.00000
     14      11.5332      0.00000
     15      12.5933      0.00000
     16      12.8666      0.00000
     17      13.0858      0.00000
     18      13.6757      0.00000
     19      15.6700      0.00000
     20      16.1957      0.00000
     21      16.9715      0.00000
     22      17.2996      0.00000
     23      17.7150      0.00000
     24      18.0221      0.00000
     25      18.8809      0.00000
     26      19.1391      0.00000
     27      19.7273      0.00000
     28      19.8173      0.00000
     29      20.6408      0.00000
     30      21.2314      0.00000
     31      21.3620      0.00000
     32      21.6852      0.00000

 k-point   116 :       0.3684    0.2632    0.5000
  band No.  band energies     occupation 
      1      -6.1900      2.00000
      2      -6.0737      2.00000
      3      -4.4537      2.00000
      4       0.4484      2.00000
      5       0.8664      2.00000
      6       0.8862      2.00000
      7       4.5693      2.00000
      8       5.0889      2.00000
      9       5.5403      1.99836
     10       6.0298      0.00000
     11       6.8742      0.00000
     12       7.0506      0.00000
     13      11.1408      0.00000
     14      11.6526      0.00000
     15      12.4561      0.00000
     16      12.7754      0.00000
     17      13.0278      0.00000
     18      13.5283      0.00000
     19      15.8972      0.00000
     20      16.3450      0.00000
     21      16.9730      0.00000
     22      17.4139      0.00000
     23      17.6792      0.00000
     24      17.9862      0.00000
     25      18.9078      0.00000
     26      19.1268      0.00000
     27      19.8160      0.00000
     28      19.9994      0.00000
     29      20.4102      0.00000
     30      21.2078      0.00000
     31      21.3788      0.00000
     32      21.6831      0.00000

 k-point   117 :       0.3596    0.2807    0.5000
  band No.  band energies     occupation 
      1      -6.1692      2.00000
      2      -6.0822      2.00000
      3      -4.4612      2.00000
      4       0.4912      2.00000
      5       0.8214      2.00000
      6       0.8251      2.00000
      7       4.6072      2.00000
      8       5.2261      2.00000
      9       5.5505      1.99575
     10       5.9498      0.00000
     11       6.8618      0.00000
     12       6.9837      0.00000
     13      11.2559      0.00000
     14      11.7756      0.00000
     15      12.3263      0.00000
     16      12.6943      0.00000
     17      12.9913      0.00000
     18      13.3864      0.00000
     19      16.1277      0.00000
     20      16.4740      0.00000
     21      16.9519      0.00000
     22      17.4280      0.00000
     23      17.7100      0.00000
     24      17.9564      0.00000
     25      18.9128      0.00000
     26      19.1113      0.00000
     27      19.9438      0.00000
     28      20.1100      0.00000
     29      20.2647      0.00000
     30      21.1540      0.00000
     31      21.4211      0.00000
     32      21.5364      0.00000

 k-point   118 :       0.3509    0.2982    0.5000
  band No.  band energies     occupation 
      1      -6.1496      2.00000
      2      -6.0921      2.00000
      3      -4.4672      2.00000
      4       0.5324      2.00000
      5       0.7747      2.00000
      6       0.7849      2.00000
      7       4.6343      2.00000
      8       5.3557      2.00000
      9       5.5549      1.99380
     10       5.8646      0.00000
     11       6.8578      0.00000
     12       6.9299      0.00000
     13      11.3563      0.00000
     14      11.8947      0.00000
     15      12.2098      0.00000
     16      12.6287      0.00000
     17      12.9793      0.00000
     18      13.2530      0.00000
     19      16.3567      0.00000
     20      16.5728      0.00000
     21      16.9053      0.00000
     22      17.3553      0.00000
     23      17.7961      0.00000
     24      17.9415      0.00000
     25      18.9124      0.00000
     26      19.0787      0.00000
     27      19.9903      0.00000
     28      20.0900      0.00000
     29      20.3792      0.00000
     30      21.0119      0.00000
     31      21.4564      0.00000
     32      21.4855      0.00000

 k-point   119 :       0.3421    0.3158    0.5000
  band No.  band energies     occupation 
      1      -6.1319      2.00000
      2      -6.1036      2.00000
      3      -4.4713      2.00000
      4       0.5655      2.00000
      5       0.7417      2.00000
      6       0.7572      2.00000
      7       4.6505      2.00000
      8       5.4710      2.00000
      9       5.5514      1.99539
     10       5.7822      0.00022
     11       6.8609      0.00000
     12       6.8916      0.00000
     13      11.4282      0.00000
     14      11.9956      0.00000
     15      12.1165      0.00000
     16      12.5873      0.00000
     17      12.9957      0.00000
     18      13.1342      0.00000
     19      16.5723      0.00000
     20      16.6353      0.00000
     21      16.8312      0.00000
     22      17.2641      0.00000
     23      17.8753      0.00000
     24      17.9391      0.00000
     25      18.9234      0.00000
     26      19.0206      0.00000
     27      19.8938      0.00000
     28      20.2306      0.00000
     29      20.5164      0.00000
     30      20.8051      0.00000
     31      21.4735      0.00000
     32      21.5538      0.00000

 k-point   120 :       0.3333    0.3333    0.5000
  band No.  band energies     occupation 
      1      -6.1166      2.00000
      2      -6.1166      2.00000
      3      -4.4728      2.00000
      4       0.5785      2.00000
      5       0.7383      2.00000
      6       0.7383      2.00000
      7       4.6558      2.00000
      8       5.5391      1.99854
      9       5.5391      1.99854
     10       5.7362      0.01671
     11       6.8704      0.00000
     12       6.8704      0.00000
     13      11.4549      0.00000
     14      12.0582      0.00000
     15      12.0582      0.00000
     16      12.5759      0.00000
     17      13.0444      0.00000
     18      13.0444      0.00000
     19      16.6590      0.00000
     20      16.7332      0.00000
     21      16.7332      0.00000
     22      17.2122      0.00000
     23      17.9252      0.00000
     24      17.9252      0.00000
     25      18.9581      0.00000
     26      18.9581      0.00000
     27      19.8643      0.00000
     28      20.3098      0.00000
     29      20.6316      0.00000
     30      20.6316      0.00000
     31      21.5445      0.00000
     32      21.5445      0.00000

 k-point   121 :       0.3333    0.3333    0.5000
  band No.  band energies     occupation 
      1      -6.1166      2.00000
      2      -6.1166      2.00000
      3      -4.4728      2.00000
      4       0.5785      2.00000
      5       0.7383      2.00000
      6       0.7383      2.00000
      7       4.6558      2.00000
      8       5.5391      1.99854
      9       5.5391      1.99854
     10       5.7362      0.01671
     11       6.8704      0.00000
     12       6.8704      0.00000
     13      11.4549      0.00000
     14      12.0582      0.00000
     15      12.0582      0.00000
     16      12.5759      0.00000
     17      13.0444      0.00000
     18      13.0444      0.00000
     19      16.6590      0.00000
     20      16.7332      0.00000
     21      16.7332      0.00000
     22      17.2122      0.00000
     23      17.9252      0.00000
     24      17.9252      0.00000
     25      18.9581      0.00000
     26      18.9581      0.00000
     27      19.8643      0.00000
     28      20.3098      0.00000
     29      20.6316      0.00000
     30      20.6316      0.00000
     31      21.5445      0.00000
     32      21.5445      0.00000

 k-point   122 :       0.3158    0.3158    0.5000
  band No.  band energies     occupation 
      1      -6.1477      2.00000
      2      -6.0957      2.00000
      3      -4.4655      2.00000
      4       0.5512      2.00000
      5       0.7269      2.00000
      6       0.8140      2.00000
      7       4.6350      2.00000
      8       5.4116      2.00000
      9       5.4876      2.00000
     10       5.8777      0.00000
     11       6.8796      0.00000
     12       6.9069      0.00000
     13      11.3622      0.00000
     14      12.0479      0.00000
     15      12.0485      0.00000
     16      12.5320      0.00000
     17      13.0825      0.00000
     18      13.2453      0.00000
     19      16.4509      0.00000
     20      16.6452      0.00000
     21      16.6514      0.00000
     22      17.4686      0.00000
     23      17.7267      0.00000
     24      17.9360      0.00000
     25      18.9872      0.00000
     26      19.1049      0.00000
     27      19.9428      0.00000
     28      19.9992      0.00000
     29      20.7219      0.00000
     30      20.7613      0.00000
     31      21.2167      0.00000
     32      21.7633      0.00000

 k-point   123 :       0.2982    0.2982    0.5000
  band No.  band energies     occupation 
      1      -6.1857      2.00000
      2      -6.0910      2.00000
      3      -4.4404      2.00000
      4       0.5234      2.00000
      5       0.7501      2.00000
      6       0.9291      2.00000
      7       4.5751      2.00000
      8       5.2070      2.00000
      9       5.4099      2.00000
     10       6.0556      0.00000
     11       6.9481      0.00000
     12       6.9675      0.00000
     13      11.1745      0.00000
     14      11.9513      0.00000
     15      12.0914      0.00000
     16      12.3738      0.00000
     17      13.3981      0.00000
     18      13.5621      0.00000
     19      16.1225      0.00000
     20      16.3522      0.00000
     21      16.5523      0.00000
     22      17.3199      0.00000
     23      17.6894      0.00000
     24      18.0671      0.00000
     25      19.1960      0.00000
     26      19.2484      0.00000
     27      19.6710      0.00000
     28      20.1155      0.00000
     29      20.5832      0.00000
     30      20.8804      0.00000
     31      21.1310      0.00000
     32      21.4408      0.00000

 k-point   124 :       0.2807    0.2807    0.5000
  band No.  band energies     occupation 
      1      -6.2304      2.00000
      2      -6.1051      2.00000
      3      -4.3939      2.00000
      4       0.5207      2.00000
      5       0.8066      2.00000
      6       1.0572      2.00000
      7       4.4816      2.00000
      8       4.9988      2.00000
      9       5.3211      2.00000
     10       6.1942      0.00000
     11       7.0541      0.00000
     12       7.0573      0.00000
     13      10.9732      0.00000
     14      11.8234      0.00000
     15      12.1408      0.00000
     16      12.2213      0.00000
     17      13.7954      0.00000
     18      13.9374      0.00000
     19      15.7729      0.00000
     20      16.0337      0.00000
     21      16.4118      0.00000
     22      16.8676      0.00000
     23      17.5686      0.00000
     24      18.4273      0.00000
     25      19.1396      0.00000
     26      19.2883      0.00000
     27      19.7411      0.00000
     28      20.3484      0.00000
     29      20.3933      0.00000
     30      20.7490      0.00000
     31      21.1670      0.00000
     32      21.2561      0.00000

 k-point   125 :       0.2632    0.2632    0.5000
  band No.  band energies     occupation 
      1      -6.2815      2.00000
      2      -6.1384      2.00000
      3      -4.3247      2.00000
      4       0.5470      2.00000
      5       0.8944      2.00000
      6       1.1926      2.00000
      7       4.3633      2.00000
      8       4.7962      2.00000
      9       5.2314      2.00000
     10       6.2861      0.00000
     11       7.1641      0.00000
     12       7.1897      0.00000
     13      10.7838      0.00000
     14      11.6718      0.00000
     15      12.1194      0.00000
     16      12.1962      0.00000
     17      14.1576      0.00000
     18      14.2824      0.00000
     19      15.4684      0.00000
     20      15.7772      0.00000
     21      16.1834      0.00000
     22      16.5014      0.00000
     23      17.3906      0.00000
     24      18.4229      0.00000
     25      19.0785      0.00000
     26      19.3158      0.00000
     27      19.8466      0.00000
     28      20.3715      0.00000
     29      20.4080      0.00000
     30      20.7040      0.00000
     31      21.2595      0.00000
     32      21.4260      0.00000

 k-point   126 :       0.2456    0.2456    0.5000
  band No.  band energies     occupation 
      1      -6.3379      2.00000
      2      -6.1889      2.00000
      3      -4.2339      2.00000
      4       0.6022      2.00000
      5       1.0114      2.00000
      6       1.3328      2.00000
      7       4.2304      2.00000
      8       4.6035      2.00000
      9       5.1452      2.00000
     10       6.3364      0.00000
     11       7.2867      0.00000
     12       7.3309      0.00000
     13      10.6159      0.00000
     14      11.5064      0.00000
     15      12.0700      0.00000
     16      12.2600      0.00000
     17      14.2775      0.00000
     18      14.4332      0.00000
     19      15.3497      0.00000
     20      15.7344      0.00000
     21      15.8815      0.00000
     22      16.3004      0.00000
     23      17.2042      0.00000
     24      18.1548      0.00000
     25      18.7262      0.00000
     26      19.4714      0.00000
     27      19.7770      0.00000
     28      20.4884      0.00000
     29      20.5288      0.00000
     30      21.0729      0.00000
     31      21.3531      0.00000
     32      21.6397      0.00000

 k-point   127 :       0.2281    0.2281    0.5000
  band No.  band energies     occupation 
      1      -6.3985      2.00000
      2      -6.2530      2.00000
      3      -4.1241      2.00000
      4       0.6845      2.00000
      5       1.1551      2.00000
      6       1.4758      2.00000
      7       4.0930      2.00000
      8       4.4236      2.00000
      9       5.0630      2.00000
     10       6.3549      0.00000
     11       7.4068      0.00000
     12       7.4685      0.00000
     13      10.4748      0.00000
     14      11.3406      0.00000
     15      12.0605      0.00000
     16      12.3275      0.00000
     17      14.0552      0.00000
     18      14.3070      0.00000
     19      15.1811      0.00000
     20      15.9063      0.00000
     21      15.9669      0.00000
     22      16.2194      0.00000
     23      17.0279      0.00000
     24      17.8694      0.00000
     25      18.3594      0.00000
     26      18.9895      0.00000
     27      20.2448      0.00000
     28      20.6270      0.00000
     29      20.7734      0.00000
     30      21.3069      0.00000
     31      21.3818      0.00000
     32      21.7651      0.00000

 k-point   128 :       0.2105    0.2105    0.5000
  band No.  band energies     occupation 
      1      -6.4621      2.00000
      2      -6.3269      2.00000
      3      -3.9992      2.00000
      4       0.7909      2.00000
      5       1.3225      2.00000
      6       1.6199      2.00000
      7       3.9599      2.00000
      8       4.2589      2.00000
      9       4.9846      2.00000
     10       6.3507      0.00000
     11       7.5094      0.00000
     12       7.5905      0.00000
     13      10.3644      0.00000
     14      11.1815      0.00000
     15      12.0779      0.00000
     16      12.3850      0.00000
     17      13.7064      0.00000
     18      14.0722      0.00000
     19      14.8134      0.00000
     20      15.9375      0.00000
     21      16.2404      0.00000
     22      16.5274      0.00000
     23      16.8766      0.00000
     24      17.6302      0.00000
     25      18.0212      0.00000
     26      18.5956      0.00000
     27      20.5422      0.00000
     28      20.6547      0.00000
     29      20.9224      0.00000
     30      21.2875      0.00000
     31      21.6004      0.00000
     32      21.7737      0.00000

 k-point   129 :       0.1930    0.1930    0.5000
  band No.  band energies     occupation 
      1      -6.5272      2.00000
      2      -6.4064      2.00000
      3      -3.8631      2.00000
      4       0.9172      2.00000
      5       1.5107      2.00000
      6       1.7638      2.00000
      7       3.8383      2.00000
      8       4.1116      2.00000
      9       4.9099      2.00000
     10       6.3310      0.00000
     11       7.5816      0.00000
     12       7.6841      0.00000
     13      10.2875      0.00000
     14      11.0299      0.00000
     15      12.1077      0.00000
     16      12.4083      0.00000
     17      13.3552      0.00000
     18      13.8708      0.00000
     19      14.4337      0.00000
     20      15.8456      0.00000
     21      16.3067      0.00000
     22      16.7012      0.00000
     23      17.0340      0.00000
     24      17.5117      0.00000
     25      17.7561      0.00000
     26      18.4302      0.00000
     27      20.2707      0.00000
     28      20.5851      0.00000
     29      21.0975      0.00000
     30      21.5926      0.00000
     31      21.6802      0.00000
     32      21.9145      0.00000

 k-point   130 :       0.1754    0.1754    0.5000
  band No.  band energies     occupation 
      1      -6.5922      2.00000
      2      -6.4881      2.00000
      3      -3.7201      2.00000
      4       1.0573      2.00000
      5       1.7157      2.00000
      6       1.9069      2.00000
      7       3.7343      2.00000
      8       3.9840      2.00000
      9       4.8395      2.00000
     10       6.3007      0.00000
     11       7.6127      0.00000
     12       7.7356      0.00000
     13      10.2451      0.00000
     14      10.8816      0.00000
     15      12.1278      0.00000
     16      12.3756      0.00000
     17      13.0549      0.00000
     18      13.7756      0.00000
     19      14.0877      0.00000
     20      15.7547      0.00000
     21      16.1490      0.00000
     22      16.4322      0.00000
     23      17.2419      0.00000
     24      17.4195      0.00000
     25      17.8710      0.00000
     26      18.6267      0.00000
     27      19.8374      0.00000
     28      20.4253      0.00000
     29      21.1581      0.00000
     30      21.4062      0.00000
     31      21.8347      0.00000
     32      22.2854      0.00000

 k-point   131 :       0.1579    0.1579    0.5000
  band No.  band energies     occupation 
      1      -6.6557      2.00000
      2      -6.5689      2.00000
      3      -3.5740      2.00000
      4       1.2033      2.00000
      5       1.9327      2.00000
      6       2.0497      2.00000
      7       3.6536      2.00000
      8       3.8794      2.00000
      9       4.7741      2.00000
     10       6.2639      0.00000
     11       7.5944      0.00000
     12       7.7326      0.00000
     13      10.2348      0.00000
     14      10.7301      0.00000
     15      12.1013      0.00000
     16      12.2994      0.00000
     17      12.8471      0.00000
     18      13.8030      0.00000
     19      13.8032      0.00000
     20      15.6799      0.00000
     21      15.8031      0.00000
     22      16.2079      0.00000
     23      17.0606      0.00000
     24      17.2790      0.00000
     25      18.3965      0.00000
     26      18.9417      0.00000
     27      19.5213      0.00000
     28      20.2232      0.00000
     29      20.9643      0.00000
     30      21.0002      0.00000
     31      22.1135      0.00000
     32      22.4818      0.00000

 k-point   132 :       0.1404    0.1404    0.5000
  band No.  band energies     occupation 
      1      -6.7163      2.00000
      2      -6.6464      2.00000
      3      -3.4288      2.00000
      4       1.3450      2.00000
      5       2.1548      2.00000
      6       2.1939      2.00000
      7       3.6016      2.00000
      8       3.8023      2.00000
      9       4.7146      2.00000
     10       6.2235      0.00000
     11       7.5223      0.00000
     12       7.6664      0.00000
     13      10.2517      0.00000
     14      10.5708      0.00000
     15      11.9934      0.00000
     16      12.2278      0.00000
     17      12.7558      0.00000
     18      13.6070      0.00000
     19      13.9229      0.00000
     20      15.3674      0.00000
     21      15.6267      0.00000
     22      16.0359      0.00000
     23      16.8530      0.00000
     24      17.1385      0.00000
     25      18.7251      0.00000
     26      18.8499      0.00000
     27      19.7768      0.00000
     28      20.0945      0.00000
     29      20.5235      0.00000
     30      20.7925      0.00000
     31      22.4203      0.00000
     32      22.7219      0.00000

 k-point   133 :       0.1228    0.1228    0.5000
  band No.  band energies     occupation 
      1      -6.7728      2.00000
      2      -6.7185      2.00000
      3      -3.2885      2.00000
      4       1.4717      2.00000
      5       2.3411      2.00000
      6       2.3721      2.00000
      7       3.5838      2.00000
      8       3.7602      2.00000
      9       4.6617      2.00000
     10       6.1823      0.00000
     11       7.3964      0.00000
     12       7.5343      0.00000
     13      10.2899      0.00000
     14      10.4055      0.00000
     15      11.8172      0.00000
     16      12.2051      0.00000
     17      12.7546      0.00000
     18      13.5138      0.00000
     19      14.0914      0.00000
     20      14.9286      0.00000
     21      15.5985      0.00000
     22      15.8779      0.00000
     23      16.6646      0.00000
     24      17.0175      0.00000
     25      18.3039      0.00000
     26      18.9422      0.00000
     27      19.9159      0.00000
     28      19.9440      0.00000
     29      20.4698      0.00000
     30      20.9138      0.00000
     31      22.7193      0.00000
     32      22.9786      0.00000

 k-point   134 :       0.1053    0.1053    0.5000
  band No.  band energies     occupation 
      1      -6.8240      2.00000
      2      -6.7838      2.00000
      3      -3.1569      2.00000
      4       1.5744      2.00000
      5       2.4894      2.00000
      6       2.5693      2.00000
      7       3.6060      2.00000
      8       3.7645      2.00000
      9       4.6163      2.00000
     10       6.1423      0.00000
     11       7.2216      0.00000
     12       7.3414      0.00000
     13      10.2417      0.00000
     14      10.3460      0.00000
     15      11.6099      0.00000
     16      12.2517      0.00000
     17      12.8056      0.00000
     18      13.5119      0.00000
     19      14.2020      0.00000
     20      14.5958      0.00000
     21      15.5959      0.00000
     22      15.7225      0.00000
     23      16.5028      0.00000
     24      16.9212      0.00000
     25      17.8851      0.00000
     26      18.7304      0.00000
     27      19.5265      0.00000
     28      19.6372      0.00000
     29      21.0096      0.00000
     30      21.4769      0.00000
     31      22.9734      0.00000
     32      23.1902      0.00000

 k-point   135 :       0.0877    0.0877    0.5000
  band No.  band energies     occupation 
      1      -6.8690      2.00000
      2      -6.8409      2.00000
      3      -3.0378      2.00000
      4       1.6497      2.00000
      5       2.6305      2.00000
      6       2.7283      2.00000
      7       3.6741      2.00000
      8       3.8284      2.00000
      9       4.5790      2.00000
     10       6.1053      0.00000
     11       7.0074      0.00000
     12       7.0997      0.00000
     13      10.0886      0.00000
     14      10.4201      0.00000
     15      11.4008      0.00000
     16      12.3648      0.00000
     17      12.8889      0.00000
     18      13.5729      0.00000
     19      13.9503      0.00000
     20      14.6703      0.00000
     21      15.5632      0.00000
     22      15.6132      0.00000
     23      16.3749      0.00000
     24      16.8521      0.00000
     25      17.5022      0.00000
     26      18.4336      0.00000
     27      19.1006      0.00000
     28      19.2485      0.00000
     29      21.6784      0.00000
     30      22.1526      0.00000
     31      23.1422      0.00000
     32      23.2950      0.00000

 k-point   136 :       0.0702    0.0702    0.5000
  band No.  band energies     occupation 
      1      -6.9068      2.00000
      2      -6.8888      2.00000
      3      -2.9346      2.00000
      4       1.7000      2.00000
      5       2.7519      2.00000
      6       2.8370      2.00000
      7       3.7901      2.00000
      8       3.9568      2.00000
      9       4.5504      2.00000
     10       6.0730      0.00000
     11       6.7668      0.00000
     12       6.8269      0.00000
     13       9.9538      0.00000
     14      10.5122      0.00000
     15      11.2103      0.00000
     16      12.5268      0.00000
     17      12.9876      0.00000
     18      13.5921      0.00000
     19      13.6713      0.00000
     20      14.8928      0.00000
     21      15.3946      0.00000
     22      15.6323      0.00000
     23      16.2971      0.00000
     24      16.8108      0.00000
     25      17.1792      0.00000
     26      18.1370      0.00000
     27      18.6946      0.00000
     28      18.8387      0.00000
     29      22.3588      0.00000
     30      22.7969      0.00000
     31      23.2765      0.00000
     32      23.3441      0.00000

 k-point   137 :       0.0526    0.0526    0.5000
  band No.  band energies     occupation 
      1      -6.9369      2.00000
      2      -6.9268      2.00000
      3      -2.8505      2.00000
      4       1.7307      2.00000
      5       2.8443      2.00000
      6       2.9004      2.00000
      7       3.9447      2.00000
      8       4.1337      2.00000
      9       4.5318      2.00000
     10       6.0464      0.00000
     11       6.5173      0.00000
     12       6.5453      0.00000
     13       9.8429      0.00000
     14      10.6176      0.00000
     15      11.0523      0.00000
     16      12.7040      0.00000
     17      13.0830      0.00000
     18      13.2783      0.00000
     19      13.7890      0.00000
     20      15.1015      0.00000
     21      15.2306      0.00000
     22      15.6236      0.00000
     23      16.2940      0.00000
     24      16.7702      0.00000
     25      16.9690      0.00000
     26      17.8769      0.00000
     27      18.3203      0.00000
     28      18.4337      0.00000
     29      22.8961      0.00000
     30      23.0688      0.00000
     31      23.5224      0.00000
     32      23.7359      0.00000

 k-point   138 :       0.0351    0.0351    0.5000
  band No.  band energies     occupation 
      1      -6.9588      2.00000
      2      -6.9543      2.00000
      3      -2.7884      2.00000
      4       1.7479      2.00000
      5       2.9063      2.00000
      6       2.9331      2.00000
      7       4.1104      2.00000
      8       4.3248      2.00000
      9       4.5257      2.00000
     10       6.0267      0.00000
     11       6.2833      0.00000
     12       6.2841      0.00000
     13       9.7600      0.00000
     14      10.7237      0.00000
     15      10.9353      0.00000
     16      12.7950      0.00000
     17      13.1115      0.00000
     18      13.1592      0.00000
     19      13.9077      0.00000
     20      15.0145      0.00000
     21      15.3273      0.00000
     22      15.5767      0.00000
     23      16.3671      0.00000
     24      16.6536      0.00000
     25      16.9717      0.00000
     26      17.6758      0.00000
     27      17.9947      0.00000
     28      18.0497      0.00000
     29      23.0637      0.00000
     30      23.0952      0.00000
     31      24.0605      0.00000
     32      24.4007      0.00000

 k-point   139 :       0.0175    0.0175    0.5000
  band No.  band energies     occupation 
      1      -6.9721      2.00000
      2      -6.9710      2.00000
      3      -2.7503      2.00000
      4       1.7562      2.00000
      5       2.9412      2.00000
      6       2.9481      2.00000
      7       4.2394      2.00000
      8       4.4820      2.00000
      9       4.5350      2.00000
     10       6.0144      0.00000
     11       6.0865      0.00000
     12       6.1037      0.00000
     13       9.7086      0.00000
     14      10.8073      0.00000
     15      10.8639      0.00000
     16      12.7045      0.00000
     17      13.1735      0.00000
     18      13.2068      0.00000
     19      14.0010      0.00000
     20      14.8700      0.00000
     21      15.4522      0.00000
     22      15.5211      0.00000
     23      16.4691      0.00000
     24      16.5544      0.00000
     25      17.1030      0.00000
     26      17.5485      0.00000
     27      17.7079      0.00000
     28      17.7529      0.00000
     29      23.0881      0.00000
     30      23.0931      0.00000
     31      24.7028      0.00000
     32      24.9858      0.00000

 k-point   140 :      -0.0000   -0.0000    0.5000
  band No.  band energies     occupation 
      1      -6.9766      2.00000
      2      -6.9765      2.00000
      3      -2.7374      2.00000
      4       1.7586      2.00000
      5       2.9524      2.00000
      6       2.9524      2.00000
      7       4.2860      2.00000
      8       4.5457      2.00000
      9       4.5457      2.00000
     10       6.0098      0.00000
     11       6.0099      0.00000
     12       6.0335      0.00000
     13       9.6912      0.00000
     14      10.8399      0.00000
     15      10.8399      0.00000
     16      12.6505      0.00000
     17      13.2229      0.00000
     18      13.2229      0.00000
     19      14.0372      0.00000
     20      14.8110      0.00000
     21      15.4966      0.00000
     22      15.4966      0.00000
     23      16.5200      0.00000
     24      16.5200      0.00000
     25      17.2362      0.00000
     26      17.5044      0.00000
     27      17.5044      0.00000
     28      17.6580      0.00000
     29      23.0909      0.00000
     30      23.0909      0.00000
     31      25.2135      0.00000
     32      25.2297      0.00000

 k-point   141 :       0.5000    0.0000    0.5000
  band No.  band energies     occupation 
      1      -6.4043      2.00000
      2      -6.0411      2.00000
      3      -4.3697      2.00000
      4       0.0986      2.00000
      5       1.9990      2.00000
      6       2.0250      2.00000
      7       3.1997      2.00000
      8       3.5375      2.00000
      9       5.3795      2.00000
     10       6.3193      0.00000
     11       7.4639      0.00000
     12       8.0235      0.00000
     13      10.1670      0.00000
     14      10.8646      0.00000
     15      13.5336      0.00000
     16      13.6860      0.00000
     17      14.6084      0.00000
     18      14.8439      0.00000
     19      14.8884      0.00000
     20      15.1858      0.00000
     21      15.8012      0.00000
     22      16.0344      0.00000
     23      16.2275      0.00000
     24      16.8476      0.00000
     25      18.1401      0.00000
     26      18.7114      0.00000
     27      20.4584      0.00000
     28      20.8492      0.00000
     29      21.1561      0.00000
     30      21.2043      0.00000
     31      21.7661      0.00000
     32      21.7686      0.00000

 k-point   142 :       0.5000    0.0000    0.4737
  band No.  band energies     occupation 
      1      -6.4122      2.00000
      2      -6.0320      2.00000
      3      -4.3705      2.00000
      4       0.1035      2.00000
      5       1.9456      2.00000
      6       2.0678      2.00000
      7       3.2081      2.00000
      8       3.5454      2.00000
      9       5.3271      2.00000
     10       6.3717      0.00000
     11       7.4516      0.00000
     12       8.0195      0.00000
     13      10.1528      0.00000
     14      10.8801      0.00000
     15      13.5472      0.00000
     16      13.6957      0.00000
     17      14.5807      0.00000
     18      14.8021      0.00000
     19      14.9306      0.00000
     20      15.1969      0.00000
     21      15.8094      0.00000
     22      16.0181      0.00000
     23      16.2512      0.00000
     24      16.8774      0.00000
     25      18.1211      0.00000
     26      18.7333      0.00000
     27      20.3874      0.00000
     28      20.8189      0.00000
     29      21.1350      0.00000
     30      21.2736      0.00000
     31      21.6916      0.00000
     32      21.7578      0.00000

 k-point   143 :       0.5000    0.0000    0.4474
  band No.  band energies     occupation 
      1      -6.4336      2.00000
      2      -6.0068      2.00000
      3      -4.3728      2.00000
      4       0.1182      2.00000
      5       1.8735      2.00000
      6       2.1086      2.00000
      7       3.2337      2.00000
      8       3.5682      2.00000
      9       5.1956      2.00000
     10       6.5027      0.00000
     11       7.4170      0.00000
     12       8.0067      0.00000
     13      10.1117      0.00000
     14      10.9259      0.00000
     15      13.5859      0.00000
     16      13.7257      0.00000
     17      14.5065      0.00000
     18      14.7580      0.00000
     19      14.9677      0.00000
     20      15.2315      0.00000
     21      15.8239      0.00000
     22      15.9910      0.00000
     23      16.3158      0.00000
     24      16.9594      0.00000
     25      18.0726      0.00000
     26      18.7908      0.00000
     27      20.2104      0.00000
     28      20.7586      0.00000
     29      21.0995      0.00000
     30      21.3231      0.00000
     31      21.5951      0.00000
     32      21.7140      0.00000

 k-point   144 :       0.5000    0.0000    0.4211
  band No.  band energies     occupation 
      1      -6.4641      2.00000
      2      -5.9701      2.00000
      3      -4.3766      2.00000
      4       0.1424      2.00000
      5       1.7958      2.00000
      6       2.1357      2.00000
      7       3.2767      2.00000
      8       3.6037      2.00000
      9       5.0242      2.00000
     10       6.6710      0.00000
     11       7.3662      0.00000
     12       7.9827      0.00000
     13      10.0471      0.00000
     14      10.9996      0.00000
     15      13.6432      0.00000
     16      13.7785      0.00000
     17      14.4071      0.00000
     18      14.7216      0.00000
     19      14.9786      0.00000
     20      15.2839      0.00000
     21      15.8152      0.00000
     22      15.9984      0.00000
     23      16.4147      0.00000
     24      17.0778      0.00000
     25      18.0110      0.00000
     26      18.8683      0.00000
     27      19.9827      0.00000
     28      20.6823      0.00000
     29      20.9969      0.00000
     30      21.2495      0.00000
     31      21.5404      0.00000
     32      21.6975      0.00000

 k-point   145 :       0.5000    0.0000    0.3947
  band No.  band energies     occupation 
      1      -6.4995      2.00000
      2      -5.9261      2.00000
      3      -4.3817      2.00000
      4       0.1762      2.00000
      5       1.7150      2.00000
      6       2.1491      2.00000
      7       3.3368      2.00000
      8       3.6488      2.00000
      9       4.8362      2.00000
     10       6.8459      0.00000
     11       7.3118      0.00000
     12       7.9458      0.00000
     13       9.9631      0.00000
     14      11.0989      0.00000
     15      13.7091      0.00000
     16      13.8584      0.00000
     17      14.2996      0.00000
     18      14.6876      0.00000
     19      14.9719      0.00000
     20      15.3384      0.00000
     21      15.7831      0.00000
     22      16.0513      0.00000
     23      16.5438      0.00000
     24      17.2173      0.00000
     25      17.9514      0.00000
     26      18.9517      0.00000
     27      19.7351      0.00000
     28      20.5811      0.00000
     29      20.8246      0.00000
     30      21.1124      0.00000
     31      21.5334      0.00000
     32      21.6416      0.00000

 k-point   146 :       0.5000    0.0000    0.3684
  band No.  band energies     occupation 
      1      -6.5369      2.00000
      2      -5.8779      2.00000
      3      -4.3880      2.00000
      4       0.2191      2.00000
      5       1.6331      2.00000
      6       2.1504      2.00000
      7       3.4126      2.00000
      8       3.6991      2.00000
      9       4.6440      2.00000
     10       6.9846      0.00000
     11       7.2885      0.00000
     12       7.8967      0.00000
     13       9.8641      0.00000
     14      11.2210      0.00000
     15      13.7750      0.00000
     16      13.9646      0.00000
     17      14.1947      0.00000
     18      14.6550      0.00000
     19      14.9576      0.00000
     20      15.3799      0.00000
     21      15.7594      0.00000
     22      16.1276      0.00000
     23      16.6964      0.00000
     24      17.3620      0.00000
     25      17.9111      0.00000
     26      19.0238      0.00000
     27      19.4881      0.00000
     28      20.4409      0.00000
     29      20.6269      0.00000
     30      20.9652      0.00000
     31      21.4890      0.00000
     32      21.6042      0.00000

 k-point   147 :       0.5000    0.0000    0.3421
  band No.  band energies     occupation 
      1      -6.5748      2.00000
      2      -5.8275      2.00000
      3      -4.3955      2.00000
      4       0.2710      2.00000
      5       1.5517      2.00000
      6       2.1420      2.00000
      7       3.5018      2.00000
      8       3.7478      2.00000
      9       4.4576      2.00000
     10       7.0096      0.00000
     11       7.3656      0.00000
     12       7.8418      0.00000
     13       9.7538      0.00000
     14      11.3629      0.00000
     15      13.8355      0.00000
     16      14.0648      0.00000
     17      14.1262      0.00000
     18      14.6247      0.00000
     19      14.9423      0.00000
     20      15.3996      0.00000
     21      15.7625      0.00000
     22      16.2159      0.00000
     23      16.8610      0.00000
     24      17.4895      0.00000
     25      17.9170      0.00000
     26      19.0280      0.00000
     27      19.2960      0.00000
     28      20.2571      0.00000
     29      20.4313      0.00000
     30      20.8329      0.00000
     31      21.3688      0.00000
     32      21.5378      0.00000

 k-point   148 :       0.5000    0.0000    0.3158
  band No.  band energies     occupation 
      1      -6.6118      2.00000
      2      -5.7762      2.00000
      3      -4.4038      2.00000
      4       0.3314      2.00000
      5       1.4721      2.00000
      6       2.1268      2.00000
      7       3.6021      2.00000
      8       3.7803      2.00000
      9       4.2924      2.00000
     10       6.9529      0.00000
     11       7.4849      0.00000
     12       7.8083      0.00000
     13       9.6360      0.00000
     14      11.5213      0.00000
     15      13.8728      0.00000
     16      14.0191      0.00000
     17      14.2439      0.00000
     18      14.5983      0.00000
     19      14.9323      0.00000
     20      15.4021      0.00000
     21      15.7921      0.00000
     22      16.3120      0.00000
     23      17.0182      0.00000
     24      17.5841      0.00000
     25      17.9955      0.00000
     26      18.8592      0.00000
     27      19.2578      0.00000
     28      20.0457      0.00000
     29      20.2491      0.00000
     30      20.7134      0.00000
     31      21.2007      0.00000
     32      21.3506      0.00000

 k-point   149 :       0.5000    0.0000    0.2895
  band No.  band energies     occupation 
      1      -6.6473      2.00000
      2      -5.7252      2.00000
      3      -4.4129      2.00000
      4       0.3998      2.00000
      5       1.3954      2.00000
      6       2.1072      2.00000
      7       3.7106      2.00000
      8       3.7620      2.00000
      9       4.1830      2.00000
     10       6.8751      0.00000
     11       7.5124      0.00000
     12       7.8715      0.00000
     13       9.5140      0.00000
     14      11.6927      0.00000
     15      13.8446      0.00000
     16      14.0228      0.00000
     17      14.3798      0.00000
     18      14.5789      0.00000
     19      14.9378      0.00000
     20      15.4013      0.00000
     21      15.8363      0.00000
     22      16.4138      0.00000
     23      17.1369      0.00000
     24      17.6826      0.00000
     25      18.1176      0.00000
     26      18.6391      0.00000
     27      19.2522      0.00000
     28      19.8270      0.00000
     29      20.0930      0.00000
     30      20.5974      0.00000
     31      20.9459      0.00000
     32      21.2442      0.00000

 k-point   150 :       0.5000    0.0000    0.2632
  band No.  band energies     occupation 
      1      -6.6807      2.00000
      2      -5.6752      2.00000
      3      -4.4224      2.00000
      4       0.4756      2.00000
      5       1.3226      2.00000
      6       2.0854      2.00000
      7       3.6598      2.00000
      8       3.8265      2.00000
      9       4.1611      2.00000
     10       6.7937      0.00000
     11       7.4422      0.00000
     12       8.0219      0.00000
     13       9.3908      0.00000
     14      11.8727      0.00000
     15      13.7822      0.00000
     16      14.0650      0.00000
     17      14.4819      0.00000
     18      14.5764      0.00000
     19      14.9786      0.00000
     20      15.4090      0.00000
     21      15.8832      0.00000
     22      16.5198      0.00000
     23      17.1973      0.00000
     24      17.8305      0.00000
     25      18.1467      0.00000
     26      18.5366      0.00000
     27      19.1959      0.00000
     28      19.6144      0.00000
     29      19.9755      0.00000
     30      20.4745      0.00000
     31      20.6864      0.00000
     32      21.1922      0.00000

 k-point   151 :       0.5000    0.0000    0.2368
  band No.  band energies     occupation 
      1      -6.7117      2.00000
      2      -5.6272      2.00000
      3      -4.4321      2.00000
      4       0.5579      2.00000
      5       1.2547      2.00000
      6       2.0632      2.00000
      7       3.5051      2.00000
      8       3.9458      2.00000
      9       4.1964      2.00000
     10       6.7143      0.00000
     11       7.3372      0.00000
     12       8.1930      0.00000
     13       9.2690      0.00000
     14      12.0564      0.00000
     15      13.7247      0.00000
     16      14.1090      0.00000
     17      14.5115      0.00000
     18      14.6032      0.00000
     19      15.0787      0.00000
     20      15.4309      0.00000
     21      15.9247      0.00000
     22      16.6289      0.00000
     23      17.2179      0.00000
     24      17.9238      0.00000
     25      18.0721      0.00000
     26      18.6417      0.00000
     27      19.0900      0.00000
     28      19.4136      0.00000
     29      19.8854      0.00000
     30      20.2885      0.00000
     31      20.5258      0.00000
     32      21.1732      0.00000

 k-point   152 :       0.5000    0.0000    0.2105
  band No.  band energies     occupation 
      1      -6.7400      2.00000
      2      -5.5818      2.00000
      3      -4.4419      2.00000
      4       0.6456      2.00000
      5       1.1928      2.00000
      6       2.0419      2.00000
      7       3.3322      2.00000
      8       4.0671      2.00000
      9       4.2532      2.00000
     10       6.6400      0.00000
     11       7.2188      0.00000
     12       8.3623      0.00000
     13       9.1514      0.00000
     14      12.2369      0.00000
     15      13.6840      0.00000
     16      14.1469      0.00000
     17      14.5108      0.00000
     18      14.6188      0.00000
     19      15.2355      0.00000
     20      15.4670      0.00000
     21      15.9554      0.00000
     22      16.7397      0.00000
     23      17.2207      0.00000
     24      17.7161      0.00000
     25      18.2688      0.00000
     26      18.7086      0.00000
     27      19.0478      0.00000
     28      19.2274      0.00000
     29      19.7915      0.00000
     30      20.0373      0.00000
     31      20.4949      0.00000
     32      21.1798      0.00000

 k-point   153 :       0.5000    0.0000    0.1842
  band No.  band energies     occupation 
      1      -6.7653      2.00000
      2      -5.5396      2.00000
      3      -4.4514      2.00000
      4       0.7366      2.00000
      5       1.1385      2.00000
      6       2.0231      2.00000
      7       3.1557      2.00000
      8       4.1877      2.00000
      9       4.3166      2.00000
     10       6.5725      0.00000
     11       7.0945      0.00000
     12       8.5220      0.00000
     13       9.0405      0.00000
     14      12.4054      0.00000
     15      13.6684      0.00000
     16      14.1778      0.00000
     17      14.5071      0.00000
     18      14.6168      0.00000
     19      15.4269      0.00000
     20      15.5123      0.00000
     21      15.9727      0.00000
     22      16.8508      0.00000
     23      17.1936      0.00000
     24      17.5265      0.00000
     25      18.4473      0.00000
     26      18.6068      0.00000
     27      19.0443      0.00000
     28      19.2050      0.00000
     29      19.6774      0.00000
     30      19.8020      0.00000
     31      20.5329      0.00000
     32      21.2070      0.00000

 k-point   154 :       0.5000    0.0000    0.1579
  band No.  band energies     occupation 
      1      -6.7876      2.00000
      2      -5.5015      2.00000
      3      -4.4604      2.00000
      4       0.8268      2.00000
      5       1.0949      2.00000
      6       2.0079      2.00000
      7       2.9814      2.00000
      8       4.3033      2.00000
      9       4.3822      2.00000
     10       6.5133      0.00000
     11       6.9690      0.00000
     12       8.6674      0.00000
     13       8.9392      0.00000
     14      12.5508      0.00000
     15      13.6863      0.00000
     16      14.2036      0.00000
     17      14.5032      0.00000
     18      14.6096      0.00000
     19      15.5567      0.00000
     20      15.6368      0.00000
     21      15.9757      0.00000
     22      16.9564      0.00000
     23      17.0846      0.00000
     24      17.4565      0.00000
     25      18.3455      0.00000
     26      18.6312      0.00000
     27      18.9346      0.00000
     28      19.3633      0.00000
     29      19.5172      0.00000
     30      19.7029      0.00000
     31      20.6097      0.00000
     32      21.2507      0.00000

 k-point   155 :       0.5000    0.0000    0.1316
  band No.  band energies     occupation 
      1      -6.8066      2.00000
      2      -5.4679      2.00000
      3      -4.4687      2.00000
      4       0.9041      2.00000
      5       1.0727      2.00000
      6       1.9978      2.00000
      7       2.8125      2.00000
      8       4.4019      2.00000
      9       4.4554      2.00000
     10       6.4635      0.00000
     11       6.8464      0.00000
     12       8.7873      0.00000
     13       8.8577      0.00000
     14      12.6628      0.00000
     15      13.7433      0.00000
     16      14.2281      0.00000
     17      14.4985      0.00000
     18      14.6055      0.00000
     19      15.5841      0.00000
     20      15.8564      0.00000
     21      15.9648      0.00000
     22      16.9054      0.00000
     23      17.0835      0.00000
     24      17.4873      0.00000
     25      18.1406      0.00000
     26      18.5556      0.00000
     27      18.8827      0.00000
     28      19.3423      0.00000
     29      19.4793      0.00000
     30      19.8294      0.00000
     31      20.7085      0.00000
     32      21.3063      0.00000

 k-point   156 :       0.5000    0.0000    0.1053
  band No.  band energies     occupation 
      1      -6.8223      2.00000
      2      -5.4395      2.00000
      3      -4.4759      2.00000
      4       0.9382      2.00000
      5       1.0990      2.00000
      6       1.9949      2.00000
      7       2.6518      2.00000
      8       4.4675      2.00000
      9       4.5455      2.00000
     10       6.4244      0.00000
     11       6.7309      0.00000
     12       8.7615      0.00000
     13       8.9154      0.00000
     14      12.7377      0.00000
     15      13.8336      0.00000
     16      14.2571      0.00000
     17      14.4932      0.00000
     18      14.6101      0.00000
     19      15.5732      0.00000
     20      15.9363      0.00000
     21      16.0826      0.00000
     22      16.7817      0.00000
     23      17.1871      0.00000
     24      17.5579      0.00000
     25      17.9309      0.00000
     26      18.4037      0.00000
     27      18.7458      0.00000
     28      19.2085      0.00000
     29      19.6483      0.00000
     30      20.0600      0.00000
     31      20.8207      0.00000
     32      21.3666      0.00000

 k-point   157 :       0.5000    0.0000    0.0789
  band No.  band energies     occupation 
      1      -6.8346      2.00000
      2      -5.4167      2.00000
      3      -4.4818      2.00000
      4       0.9325      2.00000
      5       1.1661      2.00000
      6       2.0019      2.00000
      7       2.5022      2.00000
      8       4.5128      2.00000
      9       4.6335      2.00000
     10       6.3971      0.00000
     11       6.6270      0.00000
     12       8.7005      0.00000
     13       9.0016      0.00000
     14      12.7812      0.00000
     15      13.9345      0.00000
     16      14.2978      0.00000
     17      14.4906      0.00000
     18      14.6290      0.00000
     19      15.5033      0.00000
     20      15.9000      0.00000
     21      16.3057      0.00000
     22      16.7251      0.00000
     23      17.2854      0.00000
     24      17.6373      0.00000
     25      17.7376      0.00000
     26      18.2420      0.00000
     27      18.5613      0.00000
     28      19.0896      0.00000
     29      19.8692      0.00000
     30      20.3130      0.00000
     31      20.9418      0.00000
     32      21.4176      0.00000

 k-point   158 :       0.5000    0.0000    0.0526
  band No.  band energies     occupation 
      1      -6.8434      2.00000
      2      -5.4001      2.00000
      3      -4.4862      2.00000
      4       0.9193      2.00000
      5       1.2344      2.00000
      6       2.0224      2.00000
      7       2.3680      2.00000
      8       4.5449      2.00000
      9       4.7046      2.00000
     10       6.3832      0.00000
     11       6.5400      0.00000
     12       8.6546      0.00000
     13       9.0657      0.00000
     14      12.8034      0.00000
     15      14.0140      0.00000
     16      14.3477      0.00000
     17      14.4960      0.00000
     18      14.6758      0.00000
     19      15.3728      0.00000
     20      15.8681      0.00000
     21      16.5171      0.00000
     22      16.7339      0.00000
     23      17.3525      0.00000
     24      17.5395      0.00000
     25      17.7591      0.00000
     26      18.0929      0.00000
     27      18.3795      0.00000
     28      18.9927      0.00000
     29      20.0816      0.00000
     30      20.5666      0.00000
     31      21.0638      0.00000
     32      21.4338      0.00000

 k-point   159 :       0.5000    0.0000    0.0263
  band No.  band energies     occupation 
      1      -6.8488      2.00000
      2      -5.3900      2.00000
      3      -4.4889      2.00000
      4       0.9095      2.00000
      5       1.2834      2.00000
      6       2.0587      2.00000
      7       2.2572      2.00000
      8       4.5644      2.00000
      9       4.7510      2.00000
     10       6.3832      0.00000
     11       6.4758      0.00000
     12       8.6263      0.00000
     13       9.1050      0.00000
     14      12.8133      0.00000
     15      14.0571      0.00000
     16      14.3819      0.00000
     17      14.5085      0.00000
     18      14.7670      0.00000
     19      15.2139      0.00000
     20      15.8488      0.00000
     21      16.6743      0.00000
     22      16.8010      0.00000
     23      17.2769      0.00000
     24      17.5054      0.00000
     25      17.8457      0.00000
     26      17.9914      0.00000
     27      18.2216      0.00000
     28      18.9280      0.00000
     29      20.2387      0.00000
     30      20.8071      0.00000
     31      21.1376      0.00000
     32      21.4121      0.00000

 k-point   160 :       0.5000    0.0000    0.0000
  band No.  band energies     occupation 
      1      -6.8505      2.00000
      2      -5.3866      2.00000
      3      -4.4898      2.00000
      4       0.9061      2.00000
      5       1.3013      2.00000
      6       2.0894      2.00000
      7       2.2003      2.00000
      8       4.5709      2.00000
      9       4.7671      2.00000
     10       6.3889      0.00000
     11       6.4480      0.00000
     12       8.6168      0.00000
     13       9.1182      0.00000
     14      12.8160      0.00000
     15      14.0697      0.00000
     16      14.3914      0.00000
     17      14.5147      0.00000
     18      14.8420      0.00000
     19      15.1163      0.00000
     20      15.8424      0.00000
     21      16.7166      0.00000
     22      16.8814      0.00000
     23      17.1841      0.00000
     24      17.5254      0.00000
     25      17.8656      0.00000
     26      17.9924      0.00000
     27      18.1341      0.00000
     28      18.9051      0.00000
     29      20.2976      0.00000
     30      20.9747      0.00000
     31      21.0797      0.00000
     32      21.4250      0.00000

 k-point   161 :       0.3333    0.3333    0.5000
  band No.  band energies     occupation 
      1      -6.1166      2.00000
      2      -6.1166      2.00000
      3      -4.4728      2.00000
      4       0.5785      2.00000
      5       0.7383      2.00000
      6       0.7383      2.00000
      7       4.6558      2.00000
      8       5.5391      1.99854
      9       5.5391      1.99854
     10       5.7362      0.01671
     11       6.8704      0.00000
     12       6.8704      0.00000
     13      11.4549      0.00000
     14      12.0582      0.00000
     15      12.0582      0.00000
     16      12.5759      0.00000
     17      13.0444      0.00000
     18      13.0444      0.00000
     19      16.6590      0.00000
     20      16.7332      0.00000
     21      16.7332      0.00000
     22      17.2122      0.00000
     23      17.9252      0.00000
     24      17.9252      0.00000
     25      18.9581      0.00000
     26      18.9581      0.00000
     27      19.8643      0.00000
     28      20.3098      0.00000
     29      20.6316      0.00000
     30      20.6316      0.00000
     31      21.5445      0.00000
     32      21.5445      0.00000

 k-point   162 :       0.3333    0.3333    0.4737
  band No.  band energies     occupation 
      1      -6.1692      2.00000
      2      -6.0625      2.00000
      3      -4.4748      2.00000
      4       0.5833      2.00000
      5       0.6938      2.00000
      6       0.7907      2.00000
      7       4.6121      2.00000
      8       5.4586      2.00000
      9       5.5704      1.97836
     10       5.7809      0.00026
     11       6.8531      0.00000
     12       6.9316      0.00000
     13      11.4457      0.00000
     14      11.9340      0.00000
     15      12.1493      0.00000
     16      12.5949      0.00000
     17      12.9806      0.00000
     18      13.1606      0.00000
     19      16.5872      0.00000
     20      16.6992      0.00000
     21      16.7052      0.00000
     22      17.2841      0.00000
     23      17.9129      0.00000
     24      17.9831      0.00000
     25      18.9073      0.00000
     26      19.0204      0.00000
     27      19.8367      0.00000
     28      20.3314      0.00000
     29      20.6021      0.00000
     30      20.6345      0.00000
     31      21.5284      0.00000
     32      21.5985      0.00000

 k-point   163 :       0.3333    0.3333    0.4474
  band No.  band energies     occupation 
      1      -6.2201      2.00000
      2      -6.0070      2.00000
      3      -4.4806      2.00000
      4       0.5978      2.00000
      5       0.6572      2.00000
      6       0.8508      2.00000
      7       4.4978      2.00000
      8       5.3416      2.00000
      9       5.5470      1.99693
     10       5.8976      0.00000
     11       6.8854      0.00000
     12       7.0241      0.00000
     13      11.4201      0.00000
     14      11.7964      0.00000
     15      12.1831      0.00000
     16      12.6498      0.00000
     17      12.9931      0.00000
     18      13.3094      0.00000
     19      16.4302      0.00000
     20      16.6110      0.00000
     21      16.6222      0.00000
     22      17.4412      0.00000
     23      17.9381      0.00000
     24      18.0791      0.00000
     25      18.8698      0.00000
     26      19.0926      0.00000
     27      19.7671      0.00000
     28      20.3824      0.00000
     29      20.5562      0.00000
     30      20.6050      0.00000
     31      21.5514      0.00000
     32      21.6833      0.00000

 k-point   164 :       0.3333    0.3333    0.4211
  band No.  band energies     occupation 
      1      -6.2690      2.00000
      2      -5.9504      2.00000
      3      -4.4902      2.00000
      4       0.6217      2.00000
      5       0.6288      2.00000
      6       0.9183      2.00000
      7       4.3426      2.00000
      8       5.2001      2.00000
      9       5.4745      2.00000
     10       6.0568      0.00000
     11       6.9616      0.00000
     12       7.1356      0.00000
     13      11.3829      0.00000
     14      11.6561      0.00000
     15      12.1564      0.00000
     16      12.7359      0.00000
     17      13.0846      0.00000
     18      13.4799      0.00000
     19      16.2451      0.00000
     20      16.4856      0.00000
     21      16.4999      0.00000
     22      17.6267      0.00000
     23      17.9843      0.00000
     24      18.1959      0.00000
     25      18.8487      0.00000
     26      19.1718      0.00000
     27      19.6759      0.00000
     28      20.4414      0.00000
     29      20.5043      0.00000
     30      20.5439      0.00000
     31      21.6065      0.00000
     32      21.7909      0.00000

 k-point   165 :       0.3333    0.3333    0.3947
  band No.  band energies     occupation 
      1      -6.3159      2.00000
      2      -5.8928      2.00000
      3      -4.5036      2.00000
      4       0.6087      2.00000
      5       0.6548      2.00000
      6       0.9932      2.00000
      7       4.1671      2.00000
      8       5.0429      2.00000
      9       5.3656      2.00000
     10       6.2376      0.00000
     11       7.0690      0.00000
     12       7.2572      0.00000
     13      11.3396      0.00000
     14      11.5184      0.00000
     15      12.0921      0.00000
     16      12.8480      0.00000
     17      13.2314      0.00000
     18      13.6664      0.00000
     19      16.0510      0.00000
     20      16.3384      0.00000
     21      16.3529      0.00000
     22      17.8212      0.00000
     23      18.0377      0.00000
     24      18.3123      0.00000
     25      18.8513      0.00000
     26      19.2536      0.00000
     27      19.5750      0.00000
     28      20.4547      0.00000
     29      20.4549      0.00000
     30      20.4954      0.00000
     31      21.6777      0.00000
     32      21.9140      0.00000

 k-point   166 :       0.3333    0.3333    0.3684
  band No.  band energies     occupation 
      1      -6.3605      2.00000
      2      -5.8345      2.00000
      3      -4.5205      2.00000
      4       0.5970      2.00000
      5       0.6968      2.00000
      6       1.0751      2.00000
      7       3.9824      2.00000
      8       4.8757      2.00000
      9       5.2320      2.00000
     10       6.4284      0.00000
     11       7.1957      0.00000
     12       7.3828      0.00000
     13      11.2948      0.00000
     14      11.3861      0.00000
     15      12.0125      0.00000
     16      12.9814      0.00000
     17      13.4097      0.00000
     18      13.8655      0.00000
     19      15.8548      0.00000
     20      16.1806      0.00000
     21      16.1928      0.00000
     22      18.0179      0.00000
     23      18.0898      0.00000
     24      18.4058      0.00000
     25      18.8894      0.00000
     26      19.3317      0.00000
     27      19.4704      0.00000
     28      20.3405      0.00000
     29      20.4138      0.00000
     30      20.5381      0.00000
     31      21.7322      0.00000
     32      22.0430      0.00000

 k-point   167 :       0.3333    0.3333    0.3421
  band No.  band energies     occupation 
      1      -6.4027      2.00000
      2      -5.7757      2.00000
      3      -4.5409      2.00000
      4       0.5938      2.00000
      5       0.7472      2.00000
      6       1.1638      2.00000
      7       3.7948      2.00000
      8       4.7024      2.00000
      9       5.0823      2.00000
     10       6.6227      0.00000
     11       7.3328      0.00000
     12       7.5083      0.00000
     13      11.2522      0.00000
     14      11.2606      0.00000
     15      11.9301      0.00000
     16      13.1328      0.00000
     17      13.6045      0.00000
     18      14.0746      0.00000
     19      15.6596      0.00000
     20      16.0201      0.00000
     21      16.0288      0.00000
     22      18.1368      0.00000
     23      18.2132      0.00000
     24      18.4609      0.00000
     25      18.9696      0.00000
     26      19.3649      0.00000
     27      19.3988      0.00000
     28      20.2014      0.00000
     29      20.3862      0.00000
     30      20.5673      0.00000
     31      21.6937      0.00000
     32      22.1541      0.00000

 k-point   168 :       0.3333    0.3333    0.3158
  band No.  band energies     occupation 
      1      -6.4424      2.00000
      2      -5.7165      2.00000
      3      -4.5645      2.00000
      4       0.5993      2.00000
      5       0.8053      2.00000
      6       1.2592      2.00000
      7       3.6081      2.00000
      8       4.5255      2.00000
      9       4.9223      2.00000
     10       6.8163      0.00000
     11       7.4744      0.00000
     12       7.6309      0.00000
     13      11.1428      0.00000
     14      11.2144      0.00000
     15      11.8513      0.00000
     16      13.2998      0.00000
     17      13.8055      0.00000
     18      14.2904      0.00000
     19      15.4675      0.00000
     20      15.8633      0.00000
     21      15.8697      0.00000
     22      18.1774      0.00000
     23      18.4046      0.00000
     24      18.4806      0.00000
     25      19.0785      0.00000
     26      19.2605      0.00000
     27      19.4481      0.00000
     28      20.0405      0.00000
     29      20.3730      0.00000
     30      20.5834      0.00000
     31      21.5561      0.00000
     32      22.1713      0.00000

 k-point   169 :       0.3333    0.3333    0.2895
  band No.  band energies     occupation 
      1      -6.4794      2.00000
      2      -5.6572      2.00000
      3      -4.5913      2.00000
      4       0.6133      2.00000
      5       0.8704      2.00000
      6       1.3611      2.00000
      7       3.4248      2.00000
      8       4.3467      2.00000
      9       4.7554      2.00000
     10       7.0060      0.00000
     11       7.6165      0.00000
     12       7.7483      0.00000
     13      11.0332      0.00000
     14      11.1833      0.00000
     15      11.7789      0.00000
     16      13.4808      0.00000
     17      14.0023      0.00000
     18      14.5078      0.00000
     19      15.2800      0.00000
     20      15.7179      0.00000
     21      15.7262      0.00000
     22      18.2117      0.00000
     23      18.4765      0.00000
     24      18.5887      0.00000
     25      19.1588      0.00000
     26      19.1861      0.00000
     27      19.4757      0.00000
     28      19.8716      0.00000
     29      20.3689      0.00000
     30      20.5874      0.00000
     31      21.4104      0.00000
     32      22.0245      0.00000

 k-point   170 :       0.3333    0.3333    0.2632
  band No.  band energies     occupation 
      1      -6.5136      2.00000
      2      -5.5979      2.00000
      3      -4.6209      2.00000
      4       0.6359      2.00000
      5       0.9415      2.00000
      6       1.4692      2.00000
      7       3.2473      2.00000
      8       4.1675      2.00000
      9       4.5843      2.00000
     10       7.1895      0.00000
     11       7.7562      0.00000
     12       7.8587      0.00000
     13      10.9321      0.00000
     14      11.1603      0.00000
     15      11.7145      0.00000
     16      13.6743      0.00000
     17      14.1799      0.00000
     18      14.7152      0.00000
     19      15.0988      0.00000
     20      15.5975      0.00000
     21      15.6142      0.00000
     22      18.2404      0.00000
     23      18.4535      0.00000
     24      18.7577      0.00000
     25      19.0648      0.00000
     26      19.2406      0.00000
     27      19.4821      0.00000
     28      19.7414      0.00000
     29      20.3590      0.00000
     30      20.5794      0.00000
     31      21.2938      0.00000
     32      21.8122      0.00000

 k-point   171 :       0.3333    0.3333    0.2368
  band No.  band energies     occupation 
      1      -6.5448      2.00000
      2      -5.5388      2.00000
      3      -4.6532      2.00000
      4       0.6671      2.00000
      5       1.0170      2.00000
      6       1.5832      2.00000
      7       3.0776      2.00000
      8       3.9891      2.00000
      9       4.4105      2.00000
     10       7.3646      0.00000
     11       7.8910      0.00000
     12       7.9604      0.00000
     13      10.8396      0.00000
     14      11.1462      0.00000
     15      11.6585      0.00000
     16      13.8796      0.00000
     17      14.3154      0.00000
     18      14.8804      0.00000
     19      14.9254      0.00000
     20      15.5354      0.00000
     21      15.5579      0.00000
     22      18.2641      0.00000
     23      18.4060      0.00000
     24      18.8624      0.00000
     25      19.0239      0.00000
     26      19.1737      0.00000
     27      19.4707      0.00000
     28      19.7261      0.00000
     29      20.3185      0.00000
     30      20.5569      0.00000
     31      21.2141      0.00000
     32      21.6200      0.00000

 k-point   172 :       0.3333    0.3333    0.2105
  band No.  band energies     occupation 
      1      -6.5731      2.00000
      2      -5.4801      2.00000
      3      -4.6881      2.00000
      4       0.7066      2.00000
      5       1.0950      2.00000
      6       1.7030      2.00000
      7       2.9182      2.00000
      8       3.8123      2.00000
      9       4.2356      2.00000
     10       7.5292      0.00000
     11       8.0189      0.00000
     12       8.0522      0.00000
     13      10.7559      0.00000
     14      11.1417      0.00000
     15      11.6108      0.00000
     16      14.0951      0.00000
     17      14.3833      0.00000
     18      14.7620      0.00000
     19      14.9449      0.00000
     20      15.5841      0.00000
     21      15.5918      0.00000
     22      18.2837      0.00000
     23      18.3169      0.00000
     24      18.8074      0.00000
     25      19.0342      0.00000
     26      19.1252      0.00000
     27      19.4451      0.00000
     28      19.7972      0.00000
     29      20.2208      0.00000
     30      20.5124      0.00000
     31      21.1719      0.00000
     32      21.4891      0.00000

 k-point   173 :       0.3333    0.3333    0.1842
  band No.  band energies     occupation 
      1      -6.5982      2.00000
      2      -5.4219      2.00000
      3      -4.7253      2.00000
      4       0.7542      2.00000
      5       1.1726      2.00000
      6       1.8282      2.00000
      7       2.7724      2.00000
      8       3.6382      2.00000
      9       4.0604      2.00000
     10       7.6815      0.00000
     11       8.1327      0.00000
     12       8.1380      0.00000
     13      10.6812      0.00000
     14      11.1468      0.00000
     15      11.5707      0.00000
     16      14.3166      0.00000
     17      14.3780      0.00000
     18      14.6141      0.00000
     19      14.9077      0.00000
     20      15.6998      0.00000
     21      15.7685      0.00000
     22      18.1645      0.00000
     23      18.2997      0.00000
     24      18.7056      0.00000
     25      18.9151      0.00000
     26      19.2464      0.00000
     27      19.4056      0.00000
     28      19.8859      0.00000
     29      20.0590      0.00000
     30      20.4347      0.00000
     31      21.1668      0.00000
     32      21.3102      0.00000

 k-point   174 :       0.3333    0.3333    0.1579
  band No.  band energies     occupation 
      1      -6.6202      2.00000
      2      -5.3643      2.00000
      3      -4.7647      2.00000
      4       0.8095      2.00000
      5       1.2454      2.00000
      6       1.9585      2.00000
      7       2.6447      2.00000
      8       3.4676      2.00000
      9       3.8859      2.00000
     10       7.8200      0.00000
     11       8.2010      0.00000
     12       8.2465      0.00000
     13      10.6155      0.00000
     14      11.1613      0.00000
     15      11.5370      0.00000
     16      14.3221      0.00000
     17      14.4352      0.00000
     18      14.5920      0.00000
     19      14.8299      0.00000
     20      15.8836      0.00000
     21      16.0053      0.00000
     22      17.9478      0.00000
     23      18.3125      0.00000
     24      18.5901      0.00000
     25      18.8470      0.00000
     26      19.3398      0.00000
     27      19.3447      0.00000
     28      19.8584      0.00000
     29      19.9648      0.00000
     30      20.3231      0.00000
     31      21.1974      0.00000
     32      21.2123      0.00000

 k-point   175 :       0.3333    0.3333    0.1316
  band No.  band energies     occupation 
      1      -6.6388      2.00000
      2      -5.3076      2.00000
      3      -4.8062      2.00000
      4       0.8720      2.00000
      5       1.3071      2.00000
      6       2.0934      2.00000
      7       2.5416      2.00000
      8       3.3017      2.00000
      9       3.7130      2.00000
     10       7.9433      0.00000
     11       8.2560      0.00000
     12       8.3426      0.00000
     13      10.5591      0.00000
     14      11.1843      0.00000
     15      11.5079      0.00000
     16      14.2438      0.00000
     17      14.3265      0.00000
     18      14.7462      0.00000
     19      14.8217      0.00000
     20      16.1081      0.00000
     21      16.2680      0.00000
     22      17.6895      0.00000
     23      18.3223      0.00000
     24      18.4602      0.00000
     25      18.8205      0.00000
     26      19.2367      0.00000
     27      19.3847      0.00000
     28      19.6705      0.00000
     29      20.0253      0.00000
     30      20.2053      0.00000
     31      21.1895      0.00000
     32      21.2606      0.00000

 k-point   176 :       0.3333    0.3333    0.1053
  band No.  band energies     occupation 
      1      -6.6542      2.00000
      2      -5.2517      2.00000
      3      -4.8495      2.00000
      4       0.9407      2.00000
      5       1.3496      2.00000
      6       2.2323      2.00000
      7       2.4713      2.00000
      8       3.1417      2.00000
      9       3.5427      2.00000
     10       8.0503      0.00000
     11       8.2969      0.00000
     12       8.4245      0.00000
     13      10.5123      0.00000
     14      11.2144      0.00000
     15      11.4815      0.00000
     16      14.1628      0.00000
     17      14.2193      0.00000
     18      14.6697      0.00000
     19      15.0761      0.00000
     20      16.3520      0.00000
     21      16.5431      0.00000
     22      17.4134      0.00000
     23      18.3114      0.00000
     24      18.3290      0.00000
     25      18.8215      0.00000
     26      19.0494      0.00000
     27      19.3654      0.00000
     28      19.5472      0.00000
     29      20.0662      0.00000
     30      20.1213      0.00000
     31      21.2234      0.00000
     32      21.3495      0.00000

 k-point   177 :       0.3333    0.3333    0.0789
  band No.  band energies     occupation 
      1      -6.6662      2.00000
      2      -5.1969      2.00000
      3      -4.8946      2.00000
      4       1.0145      2.00000
      5       1.3646      2.00000
      6       2.3740      2.00000
      7       2.4421      2.00000
      8       2.9892      2.00000
      9       3.3762      2.00000
     10       8.1404      0.00000
     11       8.3230      0.00000
     12       8.4904      0.00000
     13      10.4752      0.00000
     14      11.2496      0.00000
     15      11.4555      0.00000
     16      14.0914      0.00000
     17      14.1298      0.00000
     18      14.6063      0.00000
     19      15.3408      0.00000
     20      16.5887      0.00000
     21      16.8224      0.00000
     22      17.1470      0.00000
     23      18.1385      0.00000
     24      18.3310      0.00000
     25      18.8043      0.00000
     26      18.8421      0.00000
     27      19.2893      0.00000
     28      19.4834      0.00000
     29      20.0855      0.00000
     30      20.0904      0.00000
     31      21.2965      0.00000
     32      21.4528      0.00000

 k-point   178 :       0.3333    0.3333    0.0526
  band No.  band energies     occupation 
      1      -6.6748      2.00000
      2      -5.1432      2.00000
      3      -4.9414      2.00000
      4       1.0915      2.00000
      5       1.3484      2.00000
      6       2.4576      2.00000
      7       2.5158      2.00000
      8       2.8463      2.00000
      9       3.2167      2.00000
     10       8.2133      0.00000
     11       8.3338      0.00000
     12       8.5387      0.00000
     13      10.4484      0.00000
     14      11.2878      0.00000
     15      11.4280      0.00000
     16      14.0374      0.00000
     17      14.0617      0.00000
     18      14.5592      0.00000
     19      15.6136      0.00000
     20      16.6733      0.00000
     21      17.0349      0.00000
     22      17.0957      0.00000
     23      17.9391      0.00000
     24      18.3191      0.00000
     25      18.5542      0.00000
     26      18.8792      0.00000
     27      19.1879      0.00000
     28      19.4500      0.00000
     29      20.0814      0.00000
     30      20.1015      0.00000
     31      21.3943      0.00000
     32      21.5515      0.00000

 k-point   179 :       0.3333    0.3333    0.0263
  band No.  band energies     occupation 
      1      -6.6800      2.00000
      2      -5.0907      2.00000
      3      -4.9897      2.00000
      4       1.1688      2.00000
      5       1.3048      2.00000
      6       2.5141      2.00000
      7       2.6478      2.00000
      8       2.7161      2.00000
      9       3.0739      2.00000
     10       8.2688      0.00000
     11       8.3287      0.00000
     12       8.5683      0.00000
     13      10.4322      0.00000
     14      11.3265      0.00000
     15      11.3976      0.00000
     16      14.0055      0.00000
     17      14.0174      0.00000
     18      14.5302      0.00000
     19      15.8928      0.00000
     20      16.4535      0.00000
     21      17.2269      0.00000
     22      17.3366      0.00000
     23      17.7151      0.00000
     24      18.2301      0.00000
     25      18.4051      0.00000
     26      18.9322      0.00000
     27      19.0880      0.00000
     28      19.4330      0.00000
     29      20.0891      0.00000
     30      20.1031      0.00000
     31      21.5004      0.00000
     32      21.6201      0.00000

 k-point   180 :       0.3333    0.3333    0.0000
  band No.  band energies     occupation 
      1      -6.6817      2.00000
      2      -5.0396      2.00000
      3      -5.0395      2.00000
      4       1.2421      2.00000
      5       1.2421      2.00000
      6       2.6031      2.00000
      7       2.6031      2.00000
      8       2.7194      2.00000
      9       2.9988      2.00000
     10       8.3071      0.00000
     11       8.3071      0.00000
     12       8.5783      0.00000
     13      10.4267      0.00000
     14      11.3636      0.00000
     15      11.3636      0.00000
     16      13.9985      0.00000
     17      13.9985      0.00000
     18      14.5205      0.00000
     19      16.1755      0.00000
     20      16.1755      0.00000
     21      17.4533      0.00000
     22      17.4732      0.00000
     23      17.4732      0.00000
     24      18.1346      0.00000
     25      18.3843      0.00000
     26      19.0017      0.00000
     27      19.0017      0.00000
     28      19.4277      0.00000
     29      20.0980      0.00000
     30      20.0980      0.00000
     31      21.5871      0.00000
     32      21.6290      0.00000


--------------------------------------------------------------------------------------------------------


 soft charge-density along one line, spin component           1
         0         1         2         3         4         5         6         7         8         9
 total charge-density along one line

 pseudopotential strength for first ion, spin component:           1
 51.792  -0.006  -0.000  -0.000  -0.050  -0.000  -0.000  -0.000
 -0.006   0.013  -0.000  -0.000  -0.000   0.000   0.000   0.000
 -0.000  -0.000  12.745   0.010   0.000  -0.004  -0.000  -0.000
 -0.000  -0.000   0.010  12.761   0.000  -0.000  -0.004  -0.000
 -0.050  -0.000   0.000   0.000  12.761  -0.000  -0.000  -0.004
 -0.000   0.000  -0.004  -0.000  -0.000   0.010   0.000   0.000
 -0.000   0.000  -0.000  -0.004  -0.000   0.000   0.010   0.000
 -0.000   0.000  -0.000  -0.000  -0.004   0.000   0.000   0.010
  0.000   0.000  -0.010   0.001  -0.000  -0.000  -0.000  -0.000
  0.015   0.000  -0.000  -0.000   0.001  -0.000  -0.000  -0.000
  0.007   0.000   0.000  -0.000   0.006   0.000  -0.000   0.000
  0.000   0.000   0.001  -0.008  -0.000  -0.000  -0.000  -0.000
  0.012   0.000   0.000  -0.000  -0.010   0.000   0.000  -0.000
 total augmentation occupancy for first ion, spin component:           1
  2.000   0.000   0.000   0.000   0.000   0.000   0.000   0.000   0.000   0.000   0.000   0.000   0.000
  0.000   0.000   0.000   0.000   0.000   0.000   0.000   0.000   0.000   0.000   0.000   0.000   0.000
  0.000   0.000   1.333   0.000   0.000   0.000   0.000   0.000   0.000   0.000   0.000   0.000   0.000
  0.000   0.000   0.000   1.333   0.000   0.000   0.000   0.000   0.000   0.000   0.000   0.000   0.000
  0.000   0.000   0.000   0.000   1.333   0.000   0.000   0.000   0.000   0.000   0.000   0.000   0.000
  0.000   0.000   0.000   0.000   0.000   0.000   0.000   0.000   0.000   0.000   0.000   0.000   0.000
  0.000   0.000   0.000   0.000   0.000   0.000   0.000   0.000   0.000   0.000   0.000   0.000   0.000
  0.000   0.000   0.000   0.000   0.000   0.000   0.000   0.000   0.000   0.000   0.000   0.000   0.000
  0.000   0.000   0.000   0.000   0.000   0.000   0.000   0.000   0.000   0.000   0.000   0.000   0.000
  0.000   0.000   0.000   0.000   0.000   0.000   0.000   0.000   0.000   0.000   0.000   0.000   0.000
  0.000   0.000   0.000   0.000   0.000   0.000   0.000   0.000   0.000   0.000   0.000   0.000   0.000
  0.000   0.000   0.000   0.000   0.000   0.000   0.000   0.000   0.000   0.000   0.000   0.000   0.000
  0.000   0.000   0.000   0.000   0.000   0.000   0.000   0.000   0.000   0.000   0.000   0.000   0.000


------------------------ aborting loop because EDIFF is reached ----------------------------------------





 total charge

# of ion       s       p       d       tot
------------------------------------------
    1        1.432   1.822   0.039   3.293
    2        1.432   1.822   0.039   3.293
    3        1.432   1.822   0.039   3.293
--------------------------------------------------
tot          4.295   5.466   0.116   9.878

    CHARGE:  cpu time      0.1148: real time      0.1148
    FORLOC:  cpu time      0.0003: real time      0.0003
    FORNL :  cpu time      0.1938: real time      0.1938
    STRESS:  cpu time      3.9256: real time      3.9259
    FORCOR:  cpu time      0.0138: real time      0.0138
    FORHAR:  cpu time      0.0031: real time      0.0031
    OFIELD:  cpu time      0.0001: real time      0.0001

  FORCE on cell =-STRESS in cart. coord.  units (eV):
  Direction    XX          YY          ZZ          XY          YZ          ZX
  --------------------------------------------------------------------------------------
  Alpha Z     2.22258     2.22258     2.22258
  Ewald    -235.10976  -235.10976  -197.26597     0.00000    -0.00000     0.00000
  Hartree    12.02140    12.02140    22.09108    -0.00000     0.00000    -0.00000
  E(xc)     -70.27533   -70.27533   -69.79390    -0.00000    -0.00000     0.00000
  Local    -115.54896  -115.54900  -154.40451    -0.00003    -0.00000     0.00000
  n-local   333.24283   333.35115   328.95473    -0.68174    -0.21104    -0.82692
  augment   -81.27060   -81.27057   -78.98616     0.00003     0.00000    -0.00001
  Kinetic   154.74992   159.08564   147.19705    -5.47062     0.40990     0.86066
  Fock        0.00000     0.00000     0.00000     0.00000     0.00000     0.00000
  -------------------------------------------------------------------------------------
  Total       2.25411     2.25411     0.01489     0.00000     0.00000     0.00000
  in kB      34.33896    34.33896     0.22688     0.00000     0.00000     0.00000
  external pressure =       22.97 kB  Pullay stress =        0.00 kB


 VOLUME and BASIS-vectors are now :
 -----------------------------------------------------------------------------
  energy-cutoff  :      400.00
  volume of cell :      105.17
      direct lattice vectors                 reciprocal lattice vectors
     4.513808822  0.000000000  0.000000000     0.221542391  0.127907559 -0.000000000
    -2.256904411  3.909073108  0.000000000     0.000000000  0.255815118  0.000000000
     0.000000000  0.000000000  5.960481076     0.000000000 -0.000000000  0.167771693

  length of vectors
     4.513808822  4.513808822  5.960481076     0.255815118  0.255815118  0.167771693


 FORCES acting on ions
    electron-ion (+dipol)            ewald-force                    non-local-force                 convergence-correction
 -----------------------------------------------------------------------------------------------
   -.118E+02 0.964E-06 -.146E-06   0.171E+02 0.444E-13 -.203E-11   -.558E+01 -.115E-16 0.858E-17   0.327E-01 0.502E-05 0.196E-03
   0.588E+01 -.102E+02 0.218E-06   -.855E+01 0.148E+02 0.202E-11   0.279E+01 -.483E+01 -.197E-16   -.164E-01 0.284E-01 -.196E-03
   0.588E+01 0.102E+02 -.739E-07   -.855E+01 -.148E+02 0.713E-14   0.279E+01 0.483E+01 0.388E-16   -.164E-01 -.284E-01 -.138E-09
 -----------------------------------------------------------------------------------------------
   -.113E-06 -.192E-06 -.211E-08   0.000E+00 0.000E+00 0.224E-16   0.444E-15 0.000E+00 0.276E-16   -.740E-05 -.128E-04 0.359E-10


 POSITION                                       TOTAL-FORCE (eV/Angst)
 -----------------------------------------------------------------------------------
      1.21351      0.00000      1.98683        -0.200072      0.000000      0.000000
     -0.60675      1.05093      3.97365         0.100036     -0.173268     -0.000000
      1.65015      2.85814      0.00000         0.100036      0.173268     -0.000000
 -----------------------------------------------------------------------------------
    total drift:                               -0.000008     -0.000013     -0.000000


--------------------------------------------------------------------------------------------------------



  FREE ENERGIE OF THE ION-ELECTRON SYSTEM (eV)
  ---------------------------------------------------
  free  energy   TOTEN  =        -8.79890343 eV

  energy  without entropy=       -8.79884651  energy(sigma->0) =       -8.79887497



--------------------------------------------------------------------------------------------------------


    POTLOK:  cpu time      0.0217: real time      0.0217


--------------------------------------------------------------------------------------------------------


 writing wavefunctions
     LOOP+:  cpu time     75.1674: real time     75.2192
    4ORBIT:  cpu time      0.0002: real time      0.0001



 total charge

# of ion       s       p       d       tot
------------------------------------------
    1        1.432   1.822   0.039   3.293
    2        1.432   1.822   0.039   3.293
    3        1.432   1.822   0.039   3.293
--------------------------------------------------
tot          4.295   5.466   0.116   9.878


 total amount of memory used by VASP MPI-rank0    74867. kBytes
=======================================================================

   base      :      30000. kBytes
   nonl-proj :      36635. kBytes
   fftplans  :        480. kBytes
   grid      :       1922. kBytes
   one-center:         24. kBytes
   wavefun   :       5806. kBytes

  
  
 General timing and accounting informations for this job:
 ========================================================
  
                  Total CPU time used (sec):       80.530
                            User time (sec):       74.277
                          System time (sec):        6.253
                         Elapsed time (sec):       80.847
  
                   Maximum memory used (kb):      108544.
                   Average memory used (kb):          N/A
  
                          Minor page faults:        94437
                          Major page faults:            5
                 Voluntary context switches:         1629
