613702a2cd6807217885b437cbabd51560000077
1.0
   9.024748000000001    0.000000000000000    0.000000000000000
  -6.768561000000001   11.723493000000001    0.000000000000000
   0.000000000000000    0.000000000000000   18.058493970000001
Te
54
Direct
   0.133994313447220    0.000852988098342    0.111664756033955
   0.633354572373463    0.000000000000000    0.111111000000001
   0.133354572373463    0.333333333333333    0.111111000000001
   0.633354572373463    0.333333333333333    0.111111000000001
   0.133354572373463    0.666666666666667    0.111111000000001
   0.633354572373463    0.666666666666667    0.111111000000001
   0.133354572373463    0.000000000000000    0.444444333333334
   0.633354572373463    0.000000000000000    0.444444333333334
   0.133354572373463    0.333333333333333    0.444444333333334
   0.633354572373463    0.333333333333333    0.444444333333334
   0.133354572373463    0.666666666666667    0.444444333333334
   0.633354572373463    0.666666666666667    0.444444333333334
   0.133354572373463    0.000000000000000    0.777777666666668
   0.633354572373463    0.000000000000000    0.777777666666668
   0.133354572373463    0.333333333333333    0.777777666666668
   0.633354572373463    0.333333333333333    0.777777666666668
   0.133354572373463    0.666666666666667    0.777777666666668
   0.633354572373463    0.666666666666667    0.777777666666668
   0.000000000000000    0.088903048248975    0.222222333333332
   0.500000000000000    0.088903048248975    0.222222333333332
   0.000000000000000    0.422236381582309    0.222222333333332
   0.500000000000000    0.422236381582309    0.222222333333332
   0.000000000000000    0.755569714915642    0.222222333333332
   0.500000000000000    0.755569714915642    0.222222333333332
   0.000000000000000    0.088903048248975    0.555555666666666
   0.500000000000000    0.088903048248975    0.555555666666666
   0.000000000000000    0.422236381582309    0.555555666666666
   0.500000000000000    0.422236381582309    0.555555666666666
   0.000000000000000    0.755569714915642    0.555555666666666
   0.500000000000000    0.755569714915642    0.555555666666666
   0.000000000000000    0.088903048248975    0.888888999999999
   0.500000000000000    0.088903048248975    0.888888999999999
   0.000000000000000    0.422236381582309    0.888888999999999
   0.500000000000000    0.422236381582309    0.888888999999999
   0.000000000000000    0.755569714915642    0.888888999999999
   0.500000000000000    0.755569714915642    0.888888999999999
   0.366645427626537    0.244430285084358    0.000000000000000
   0.866645427626537    0.244430285084358    0.000000000000000
   0.366645427626537    0.577763618417691    0.000000000000000
   0.866645427626537    0.577763618417691    0.000000000000000
   0.366645427626537    0.911096951751025    0.000000000000000
   0.866645427626537    0.911096951751025    0.000000000000000
   0.366645427626537    0.244430285084358    0.333333333333333
   0.866645427626537    0.244430285084358    0.333333333333333
   0.366645427626537    0.577763618417691    0.333333333333333
   0.866645427626537    0.577763618417691    0.333333333333333
   0.366645427626537    0.911096951751025    0.333333333333333
   0.866645427626537    0.911096951751025    0.333333333333333
   0.366645427626537    0.244430285084358    0.666666666666667
   0.866645427626537    0.244430285084358    0.666666666666667
   0.366645427626537    0.577763618417691    0.666666666666667
   0.866645427626537    0.577763618417691    0.666666666666667
   0.366645427626537    0.911096951751025    0.666666666666667
   0.866645427626537    0.911096951751025    0.666666666666667
