generated by phonopy                    
   1.0000000000000000     
     9.0247480000000007    0.0000000000000000    0.0000000000000000
    -6.7685610000000000   11.7234929999999995    0.0000000000000000
     0.0000000000000000    0.0000000000000000   18.0584939700000007
   Te
    54
Direct
  0.1333545723734630  0.0000000000000000  0.1111110000000011
  0.6333545723734630  0.0000000000000000  0.1111110000000011
  0.1333545723734630  0.3333333333333357  0.1111110000000011
  0.6333545723734630  0.3333333333333357  0.1111110000000011
  0.1333545723734630  0.6666666666666643  0.1111110000000011
  0.6333545723734630  0.6666666666666643  0.1111110000000011
  0.1333545723734630  0.0000000000000000  0.4444443333333368
  0.6333545723734630  0.0000000000000000  0.4444443333333368
  0.1333545723734630  0.3333333333333357  0.4444443333333368
  0.6333545723734630  0.3333333333333357  0.4444443333333368
  0.1333545723734630  0.6666666666666643  0.4444443333333368
  0.6333545723734630  0.6666666666666643  0.4444443333333368
  0.1333545723734630  0.0000000000000000  0.7777776666666654
  0.6333545723734630  0.0000000000000000  0.7777776666666654
  0.1333545723734630  0.3333333333333357  0.7777776666666654
  0.6333545723734630  0.3333333333333357  0.7777776666666654
  0.1333545723734630  0.6666666666666643  0.7777776666666654
  0.6333545723734630  0.6666666666666643  0.7777776666666654
  0.0000000000000000  0.0889030482489730  0.2222223333333346
  0.5000000000000000  0.0889030482489730  0.2222223333333346
  0.0000000000000000  0.4222363815823087  0.2222223333333346
  0.5000000000000000  0.4222363815823087  0.2222223333333346
  0.0000000000000000  0.7555697149156444  0.2222223333333346
  0.5000000000000000  0.7555697149156444  0.2222223333333346
  0.0000000000000000  0.0889030482489730  0.5555556666666632
  0.5000000000000000  0.0889030482489730  0.5555556666666632
  0.0000000000000000  0.4222363815823087  0.5555556666666632
  0.5000000000000000  0.4222363815823087  0.5555556666666632
  0.0000000000000000  0.7555697149156444  0.5555556666666632
  0.5000000000000000  0.7555697149156444  0.5555556666666632
  0.0000000000000000  0.0889030482489730  0.8888889999999989
  0.5000000000000000  0.0889030482489730  0.8888889999999989
  0.0000000000000000  0.4222363815823087  0.8888889999999989
  0.5000000000000000  0.4222363815823087  0.8888889999999989
  0.0000000000000000  0.7555697149156444  0.8888889999999989
  0.5000000000000000  0.7555697149156444  0.8888889999999989
  0.3666454276265370  0.2444302850843556  0.0000000000000000
  0.8666454276265370  0.2444302850843556  0.0000000000000000
  0.3666454276265370  0.5777636184176913  0.0000000000000000
  0.8666454276265370  0.5777636184176913  0.0000000000000000
  0.3666454276265370  0.9110969517510270  0.0000000000000000
  0.8666454276265370  0.9110969517510270  0.0000000000000000
  0.3666454276265370  0.2444302850843556  0.3333333333333357
  0.8666454276265370  0.2444302850843556  0.3333333333333357
  0.3666454276265370  0.5777636184176913  0.3333333333333357
  0.8666454276265370  0.5777636184176913  0.3333333333333357
  0.3666454276265370  0.9110969517510270  0.3333333333333357
  0.8666454276265370  0.9110969517510270  0.3333333333333357
  0.3666454276265370  0.2444302850843556  0.6666666666666643
  0.8666454276265370  0.2444302850843556  0.6666666666666643
  0.3666454276265370  0.5777636184176913  0.6666666666666643
  0.8666454276265370  0.5777636184176913  0.6666666666666643
  0.3666454276265370  0.9110969517510270  0.6666666666666643
  0.8666454276265370  0.9110969517510270  0.6666666666666643

  0.00000000E+00  0.00000000E+00  0.00000000E+00
  0.00000000E+00  0.00000000E+00  0.00000000E+00
  0.00000000E+00  0.00000000E+00  0.00000000E+00
  0.00000000E+00  0.00000000E+00  0.00000000E+00
  0.00000000E+00  0.00000000E+00  0.00000000E+00
  0.00000000E+00  0.00000000E+00  0.00000000E+00
  0.00000000E+00  0.00000000E+00  0.00000000E+00
  0.00000000E+00  0.00000000E+00  0.00000000E+00
  0.00000000E+00  0.00000000E+00  0.00000000E+00
  0.00000000E+00  0.00000000E+00  0.00000000E+00
  0.00000000E+00  0.00000000E+00  0.00000000E+00
  0.00000000E+00  0.00000000E+00  0.00000000E+00
  0.00000000E+00  0.00000000E+00  0.00000000E+00
  0.00000000E+00  0.00000000E+00  0.00000000E+00
  0.00000000E+00  0.00000000E+00  0.00000000E+00
  0.00000000E+00  0.00000000E+00  0.00000000E+00
  0.00000000E+00  0.00000000E+00  0.00000000E+00
  0.00000000E+00  0.00000000E+00  0.00000000E+00
  0.00000000E+00  0.00000000E+00  0.00000000E+00
  0.00000000E+00  0.00000000E+00  0.00000000E+00
  0.00000000E+00  0.00000000E+00  0.00000000E+00
  0.00000000E+00  0.00000000E+00  0.00000000E+00
  0.00000000E+00  0.00000000E+00  0.00000000E+00
  0.00000000E+00  0.00000000E+00  0.00000000E+00
  0.00000000E+00  0.00000000E+00  0.00000000E+00
  0.00000000E+00  0.00000000E+00  0.00000000E+00
  0.00000000E+00  0.00000000E+00  0.00000000E+00
  0.00000000E+00  0.00000000E+00  0.00000000E+00
  0.00000000E+00  0.00000000E+00  0.00000000E+00
  0.00000000E+00  0.00000000E+00  0.00000000E+00
  0.00000000E+00  0.00000000E+00  0.00000000E+00
  0.00000000E+00  0.00000000E+00  0.00000000E+00
  0.00000000E+00  0.00000000E+00  0.00000000E+00
  0.00000000E+00  0.00000000E+00  0.00000000E+00
  0.00000000E+00  0.00000000E+00  0.00000000E+00
  0.00000000E+00  0.00000000E+00  0.00000000E+00
  0.00000000E+00  0.00000000E+00  0.00000000E+00
  0.00000000E+00  0.00000000E+00  0.00000000E+00
  0.00000000E+00  0.00000000E+00  0.00000000E+00
  0.00000000E+00  0.00000000E+00  0.00000000E+00
  0.00000000E+00  0.00000000E+00  0.00000000E+00
  0.00000000E+00  0.00000000E+00  0.00000000E+00
  0.00000000E+00  0.00000000E+00  0.00000000E+00
  0.00000000E+00  0.00000000E+00  0.00000000E+00
  0.00000000E+00  0.00000000E+00  0.00000000E+00
  0.00000000E+00  0.00000000E+00  0.00000000E+00
  0.00000000E+00  0.00000000E+00  0.00000000E+00
  0.00000000E+00  0.00000000E+00  0.00000000E+00
  0.00000000E+00  0.00000000E+00  0.00000000E+00
  0.00000000E+00  0.00000000E+00  0.00000000E+00
  0.00000000E+00  0.00000000E+00  0.00000000E+00
  0.00000000E+00  0.00000000E+00  0.00000000E+00
  0.00000000E+00  0.00000000E+00  0.00000000E+00
  0.00000000E+00  0.00000000E+00  0.00000000E+00
