  54  54   0   0
  0.3538180E+02  0.9024748E-09  0.1353712E-08  0.1805849E-08  0.5000000E-15
   1.0000000000000000E-004
  CAR 
 unknown system                          
     12.08952767     -8.84202326  301      5.46992469      1.00000000
     -8.842  0.0000E+00  0.0000E+00
     -8.772  0.0000E+00  0.0000E+00
     -8.702  0.0000E+00  0.0000E+00
     -8.633  0.0000E+00  0.0000E+00
     -8.563  0.0000E+00  0.0000E+00
     -8.493  0.0000E+00  0.0000E+00
     -8.423  0.0000E+00  0.0000E+00
     -8.354  0.0000E+00  0.0000E+00
     -8.284  0.0000E+00  0.0000E+00
     -8.214  0.0000E+00  0.0000E+00
     -8.144  0.1142E-11  0.7966E-13
     -8.075  0.3132E-06  0.2186E-07
     -8.005  0.2006E-02  0.1400E-03
     -7.935  0.3777E+00  0.2649E-01
     -7.865  0.4543E+01  0.3435E+00
     -7.795  0.1177E+02  0.1164E+01
     -7.726  0.1367E+02  0.2118E+01
     -7.656  0.9597E+01  0.2788E+01
     -7.586  0.1279E+02  0.3680E+01
     -7.516  0.1498E+02  0.4725E+01
     -7.447  0.1471E+02  0.5751E+01
     -7.377  0.1496E+02  0.6795E+01
     -7.307  0.2767E+01  0.6988E+01
     -7.237  0.1741E+02  0.8203E+01
     -7.167  0.2394E+02  0.9873E+01
     -7.098  0.1694E+02  0.1106E+02
     -7.028  0.5897E+01  0.1147E+02
     -6.958  0.3851E+02  0.1415E+02
     -6.888  0.7919E+02  0.1968E+02
     -6.819  0.6077E+02  0.2392E+02
     -6.749  0.4251E+02  0.2688E+02
     -6.679  0.4286E+02  0.2988E+02
     -6.609  0.4292E+02  0.3287E+02
     -6.540  0.2204E+02  0.3441E+02
     -6.470  0.4264E+02  0.3738E+02
     -6.400  0.2266E+02  0.3896E+02
     -6.330  0.1640E+02  0.4011E+02
     -6.260  0.7433E+01  0.4063E+02
     -6.191  0.1729E+02  0.4183E+02
     -6.121  0.3759E+02  0.4446E+02
     -6.051  0.2884E+02  0.4647E+02
     -5.981  0.1141E+02  0.4726E+02
     -5.912  0.3396E+02  0.4963E+02
     -5.842  0.4494E+02  0.5277E+02
     -5.772  0.1877E+02  0.5408E+02
     -5.702  0.2213E+02  0.5562E+02
     -5.633  0.3044E+02  0.5775E+02
     -5.563  0.3020E+02  0.5985E+02
     -5.493  0.2204E+02  0.6139E+02
     -5.423  0.3226E+02  0.6364E+02
     -5.353  0.4301E+02  0.6664E+02
     -5.284  0.3283E+02  0.6893E+02
     -5.214  0.1552E+02  0.7002E+02
     -5.144  0.9077E+01  0.7065E+02
     -5.074  0.3305E+01  0.7088E+02
     -5.005  0.1510E+00  0.7089E+02
     -4.935  0.2041E+01  0.7103E+02
     -4.865  0.6362E+01  0.7148E+02
     -4.795  0.1344E+02  0.7242E+02
     -4.725  0.2742E+02  0.7433E+02
     -4.656  0.3103E+02  0.7649E+02
     -4.586  0.5284E+02  0.8018E+02
     -4.516  0.5628E+02  0.8411E+02
     -4.446  0.6087E+02  0.8835E+02
     -4.377  0.7649E+02  0.9369E+02
     -4.307  0.4895E+02  0.9711E+02
     -4.237  0.1428E+02  0.9810E+02
     -4.167  0.1553E+02  0.9919E+02
     -4.098  0.1049E+02  0.9992E+02
     -4.028  0.4327E+01  0.1002E+03
     -3.958  0.1468E+02  0.1012E+03
     -3.888  0.9690E+01  0.1019E+03
     -3.818  0.4062E+01  0.1022E+03
     -3.749  0.2093E+01  0.1024E+03
     -3.679  0.1156E+02  0.1032E+03
     -3.609  0.1169E+02  0.1040E+03
     -3.539  0.6378E+01  0.1044E+03
     -3.470  0.5699E+01  0.1048E+03
     -3.400  0.6708E+01  0.1053E+03
     -3.330  0.2862E+01  0.1055E+03
     -3.260  0.8530E+01  0.1061E+03
     -3.191  0.4110E+01  0.1064E+03
     -3.121  0.4434E+01  0.1067E+03
     -3.051  0.7381E+01  0.1072E+03
     -2.981  0.5177E+01  0.1076E+03
     -2.911  0.2861E+01  0.1077E+03
     -2.842  0.3365E+01  0.1080E+03
     -2.772  0.2211E+00  0.1080E+03
     -2.702  0.4832E-03  0.1080E+03
     -2.632  0.2653E-07  0.1080E+03
     -2.563  0.3253E-13  0.1080E+03
     -2.493  0.0000E+00  0.1080E+03
     -2.423  0.0000E+00  0.1080E+03
     -2.353  0.0000E+00  0.1080E+03
     -2.283  0.0000E+00  0.1080E+03
     -2.214  0.0000E+00  0.1080E+03
     -2.144  0.0000E+00  0.1080E+03
     -2.074  0.0000E+00  0.1080E+03
     -2.004  0.0000E+00  0.1080E+03
     -1.935  0.0000E+00  0.1080E+03
     -1.865  0.0000E+00  0.1080E+03
     -1.795  0.0000E+00  0.1080E+03
     -1.725  0.0000E+00  0.1080E+03
     -1.656  0.0000E+00  0.1080E+03
     -1.586  0.0000E+00  0.1080E+03
     -1.516  0.0000E+00  0.1080E+03
     -1.446  0.0000E+00  0.1080E+03
     -1.376  0.0000E+00  0.1080E+03
     -1.307  0.0000E+00  0.1080E+03
     -1.237  0.0000E+00  0.1080E+03
     -1.167  0.0000E+00  0.1080E+03
     -1.097  0.0000E+00  0.1080E+03
     -1.028  0.0000E+00  0.1080E+03
     -0.958  0.0000E+00  0.1080E+03
     -0.888  0.0000E+00  0.1080E+03
     -0.818  0.0000E+00  0.1080E+03
     -0.748  0.0000E+00  0.1080E+03
     -0.679  0.0000E+00  0.1080E+03
     -0.609  0.0000E+00  0.1080E+03
     -0.539  0.0000E+00  0.1080E+03
     -0.469  0.0000E+00  0.1080E+03
     -0.400  0.0000E+00  0.1080E+03
     -0.330  0.0000E+00  0.1080E+03
     -0.260  0.0000E+00  0.1080E+03
     -0.190  0.4395E-12  0.1080E+03
     -0.121  0.1966E-06  0.1080E+03
     -0.051  0.2137E-02  0.1080E+03
      0.019  0.6884E+00  0.1080E+03
      0.089  0.1051E+02  0.1088E+03
      0.159  0.1919E+02  0.1101E+03
      0.228  0.2398E+02  0.1118E+03
      0.298  0.2057E+02  0.1132E+03
      0.368  0.1537E+02  0.1143E+03
      0.438  0.2142E+02  0.1158E+03
      0.507  0.3751E+02  0.1184E+03
      0.577  0.3090E+02  0.1206E+03
      0.647  0.2185E+02  0.1221E+03
      0.717  0.2800E+02  0.1240E+03
      0.786  0.4048E+02  0.1269E+03
      0.856  0.3853E+02  0.1296E+03
      0.926  0.3426E+02  0.1320E+03
      0.996  0.4061E+02  0.1348E+03
      1.066  0.5463E+02  0.1386E+03
      1.135  0.6410E+02  0.1431E+03
      1.205  0.8650E+02  0.1491E+03
      1.275  0.6197E+02  0.1534E+03
      1.345  0.3105E+02  0.1556E+03
      1.414  0.3258E+02  0.1579E+03
      1.484  0.3578E+02  0.1604E+03
      1.554  0.2640E+02  0.1622E+03
      1.624  0.3275E+02  0.1645E+03
      1.694  0.3721E+02  0.1671E+03
      1.763  0.3566E+02  0.1696E+03
      1.833  0.3140E+02  0.1718E+03
      1.903  0.2952E+02  0.1738E+03
      1.973  0.5024E+02  0.1773E+03
      2.042  0.1005E+03  0.1843E+03
      2.112  0.1069E+03  0.1918E+03
      2.182  0.6907E+02  0.1966E+03
      2.252  0.2726E+02  0.1985E+03
      2.321  0.3420E+02  0.2009E+03
      2.391  0.4177E+02  0.2038E+03
      2.461  0.3052E+02  0.2059E+03
      2.531  0.3328E+02  0.2083E+03
      2.601  0.4759E+02  0.2116E+03
      2.670  0.4781E+02  0.2149E+03
      2.740  0.3666E+02  0.2175E+03
      2.810  0.3097E+02  0.2196E+03
      2.880  0.3201E+02  0.2219E+03
      2.949  0.2950E+02  0.2239E+03
      3.019  0.2763E+02  0.2259E+03
      3.089  0.2580E+02  0.2277E+03
      3.159  0.3347E+02  0.2300E+03
      3.229  0.4518E+02  0.2332E+03
      3.298  0.4812E+02  0.2365E+03
      3.368  0.2592E+02  0.2383E+03
      3.438  0.3772E+02  0.2409E+03
      3.508  0.4051E+02  0.2438E+03
      3.577  0.4023E+02  0.2466E+03
      3.647  0.4315E+02  0.2496E+03
      3.717  0.4466E+02  0.2527E+03
      3.787  0.4183E+02  0.2556E+03
      3.856  0.4682E+02  0.2589E+03
      3.926  0.5904E+02  0.2630E+03
      3.996  0.6012E+02  0.2672E+03
      4.066  0.6612E+02  0.2718E+03
      4.136  0.6252E+02  0.2762E+03
      4.205  0.6077E+02  0.2804E+03
      4.275  0.6044E+02  0.2846E+03
      4.345  0.6968E+02  0.2895E+03
      4.415  0.5838E+02  0.2936E+03
      4.484  0.7015E+02  0.2985E+03
      4.554  0.5226E+02  0.3021E+03
      4.624  0.4702E+02  0.3054E+03
      4.694  0.7296E+02  0.3105E+03
      4.763  0.5512E+02  0.3143E+03
      4.833  0.3635E+02  0.3169E+03
      4.903  0.2636E+02  0.3187E+03
      4.973  0.6578E+01  0.3192E+03
      5.043  0.8769E+01  0.3198E+03
      5.112  0.1518E+02  0.3208E+03
      5.182  0.1725E+02  0.3220E+03
      5.252  0.2068E+02  0.3235E+03
      5.322  0.7187E+01  0.3240E+03
      5.391  0.1991E+00  0.3240E+03
      5.461  0.2125E-03  0.3240E+03
      5.531  0.6094E-08  0.3240E+03
      5.601  0.4243E-14  0.3240E+03
      5.671  0.8310E-13  0.3240E+03
      5.740  0.5375E-07  0.3240E+03
      5.810  0.8134E-03  0.3240E+03
      5.880  0.3540E+00  0.3240E+03
      5.950  0.7697E+01  0.3246E+03
      6.019  0.2108E+02  0.3260E+03
      6.089  0.3711E+02  0.3286E+03
      6.159  0.5606E+02  0.3325E+03
      6.229  0.5036E+02  0.3360E+03
      6.298  0.7073E+02  0.3410E+03
      6.368  0.8425E+02  0.3469E+03
      6.438  0.6925E+02  0.3517E+03
      6.508  0.6568E+02  0.3563E+03
      6.578  0.4584E+02  0.3595E+03
      6.647  0.4887E+02  0.3629E+03
      6.717  0.5490E+02  0.3667E+03
      6.787  0.4647E+02  0.3700E+03
      6.857  0.6024E+02  0.3742E+03
      6.926  0.6320E+02  0.3786E+03
      6.996  0.5715E+02  0.3826E+03
      7.066  0.2970E+02  0.3846E+03
      7.136  0.3192E+02  0.3869E+03
      7.205  0.5140E+02  0.3904E+03
      7.275  0.5752E+02  0.3945E+03
      7.345  0.3926E+02  0.3972E+03
      7.415  0.3057E+02  0.3993E+03
      7.485  0.3019E+02  0.4014E+03
      7.554  0.4598E+02  0.4046E+03
      7.624  0.4006E+02  0.4074E+03
      7.694  0.3877E+02  0.4101E+03
      7.764  0.3849E+02  0.4128E+03
      7.833  0.3429E+02  0.4152E+03
      7.903  0.4020E+02  0.4180E+03
      7.973  0.2115E+02  0.4195E+03
      8.043  0.1049E+02  0.4202E+03
      8.113  0.1673E+02  0.4214E+03
      8.182  0.1639E+02  0.4225E+03
      8.252  0.7141E+01  0.4230E+03
      8.322  0.9738E+01  0.4237E+03
      8.392  0.2494E+02  0.4255E+03
      8.461  0.2521E+02  0.4272E+03
      8.531  0.9033E+01  0.4279E+03
      8.601  0.1130E+02  0.4286E+03
      8.671  0.1622E+02  0.4298E+03
      8.740  0.2240E+02  0.4313E+03
      8.810  0.2662E+02  0.4332E+03
      8.880  0.2368E+02  0.4348E+03
      8.950  0.1878E+02  0.4362E+03
      9.020  0.1642E+02  0.4373E+03
      9.089  0.1043E+02  0.4380E+03
      9.159  0.1167E+02  0.4388E+03
      9.229  0.9660E+01  0.4395E+03
      9.299  0.2088E+02  0.4410E+03
      9.368  0.2273E+02  0.4426E+03
      9.438  0.1421E+02  0.4435E+03
      9.508  0.1460E+02  0.4446E+03
      9.578  0.1741E+02  0.4458E+03
      9.648  0.2105E+02  0.4473E+03
      9.717  0.1866E+02  0.4486E+03
      9.787  0.3957E+02  0.4513E+03
      9.857  0.3419E+02  0.4537E+03
      9.927  0.2849E+02  0.4557E+03
      9.996  0.3164E+02  0.4579E+03
     10.066  0.2795E+02  0.4598E+03
     10.136  0.2521E+02  0.4616E+03
     10.206  0.2716E+02  0.4635E+03
     10.275  0.2232E+02  0.4651E+03
     10.345  0.9812E+01  0.4657E+03
     10.415  0.1653E+02  0.4669E+03
     10.485  0.1969E+02  0.4683E+03
     10.555  0.2519E+02  0.4700E+03
     10.624  0.3242E+02  0.4723E+03
     10.694  0.1666E+02  0.4735E+03
     10.764  0.1895E+02  0.4748E+03
     10.834  0.3683E+02  0.4773E+03
     10.903  0.2115E+02  0.4788E+03
     10.973  0.7917E+01  0.4794E+03
     11.043  0.4989E+01  0.4797E+03
     11.113  0.1596E+01  0.4798E+03
     11.182  0.2105E+01  0.4800E+03
     11.252  0.3311E+00  0.4800E+03
     11.322  0.1976E-02  0.4800E+03
     11.392  0.3128E-06  0.4800E+03
     11.462  0.1142E-11  0.4800E+03
     11.531  0.0000E+00  0.4800E+03
     11.601  0.0000E+00  0.4800E+03
     11.671  0.0000E+00  0.4800E+03
     11.741  0.0000E+00  0.4800E+03
     11.810  0.0000E+00  0.4800E+03
     11.880  0.0000E+00  0.4800E+03
     11.950  0.0000E+00  0.4800E+03
     12.020  0.0000E+00  0.4800E+03
     12.090  0.0000E+00  0.4800E+03
