       N       E                     dE             d eps       ncg     rms          rms(c)
DAV:   1     0.153155266865E+04    0.15316E+04   -0.11669E+05  2400   0.109E+03
DAV:   2    -0.285473525679E+02   -0.15601E+04   -0.14968E+04  2880   0.161E+02
DAV:   3    -0.165402508745E+03   -0.13686E+03   -0.13411E+03  2880   0.510E+01
DAV:   4    -0.168910242348E+03   -0.35077E+01   -0.35022E+01  2784   0.940E+00
DAV:   5    -0.168964044864E+03   -0.53803E-01   -0.53801E-01  3120   0.139E+00    0.707E+00
DAV:   6    -0.168641803579E+03    0.32224E+00   -0.37475E-01  2688   0.978E-01    0.426E+00
DAV:   7    -0.168578454244E+03    0.63349E-01   -0.68541E-01  2928   0.133E+00    0.477E-01
DAV:   8    -0.168579349901E+03   -0.89566E-03   -0.10294E-01  2736   0.471E-01    0.168E-01
DAV:   9    -0.168580787868E+03   -0.14380E-02   -0.45504E-03  3120   0.112E-01    0.817E-02
DAV:  10    -0.168581079612E+03   -0.29174E-03   -0.44509E-04  2736   0.340E-02    0.177E-02
DAV:  11    -0.168581089241E+03   -0.96286E-05   -0.52972E-05  3024   0.119E-02    0.633E-03
DAV:  12    -0.168581093730E+03   -0.44897E-05   -0.86908E-06  2880   0.518E-03    0.298E-03
DAV:  13    -0.168581093890E+03   -0.15996E-06   -0.31366E-06  2736   0.326E-03
   1 F= -.16858109E+03 E0= -.16858109E+03  d E =-.195799E-10
 Linear response reoptimize wavefunctions
DAV:   1    -0.168581093403E+03    0.48773E-06   -0.75016E-07  2832   0.149E-03
DAV:   2    -0.168581093409E+03   -0.62100E-08   -0.64577E-08  2784   0.427E-04
DAV:   3    -0.168581093409E+03   -0.42746E-09   -0.48901E-10  1872   0.835E-05
 Linear response DOF=         162
 Linear response progress:
  Degree of freedom:   1/162
       N       E                     dE             d eps       ncg     rms          rms(c)
RMM:   1    -0.449366631918E-01   -0.44937E-01    0.40128E-02  5512   0.274E-01
RMM:   2    -0.423989771856E-01    0.25377E-02   -0.28218E-03  3658   0.764E-02    0.401E-02
RMM:   3    -0.424715020004E-01   -0.72525E-04   -0.12703E-04  3820   0.182E-02    0.232E-02
RMM:   4    -0.425024733785E-01   -0.30971E-04    0.12674E-05  3980   0.540E-03    0.106E-02
RMM:   5    -0.425130958341E-01   -0.10622E-04    0.23076E-05  3939   0.339E-03    0.224E-03
RMM:   6    -0.425082072695E-01    0.48886E-05    0.56830E-05  4221   0.859E-04    0.127E-03
RMM:   7    -0.425062017899E-01    0.20055E-05    0.54788E-05  4323   0.407E-04    0.572E-04
RMM:   8    -0.425054593270E-01    0.74246E-06    0.54495E-05  4458   0.303E-04    0.122E-04
RMM:   9    -0.425054967763E-01   -0.37449E-07    0.56371E-05  5380   0.162E-04    0.481E-05
RMM:  10    -0.425070434760E-01   -0.15467E-05    0.46234E-05  6076   0.143E-04    0.150E-05
RMM:  11    -0.425068774498E-01    0.16603E-06    0.49861E-05  6609   0.135E-04    0.606E-06
RMM:  12    -0.425070860088E-01   -0.20856E-06    0.51501E-05  6642   0.134E-04    0.247E-06
RMM:  13    -0.425066082932E-01    0.47772E-06    0.53814E-05  6680   0.133E-04    0.109E-06
 Linear response progress:
  Degree of freedom:   2/162
       N       E                     dE             d eps       ncg     rms          rms(c)
RMM:   1    -0.458633369216E-01   -0.45863E-01    0.37599E-02  5474   0.270E-01
RMM:   2    -0.443332047008E-01    0.15301E-02   -0.26413E-03  3688   0.727E-02    0.425E-02
RMM:   3    -0.444311445097E-01   -0.97940E-04   -0.12451E-04  3850   0.172E-02    0.240E-02
RMM:   4    -0.444947706570E-01   -0.63626E-04   -0.22912E-05  3935   0.625E-03    0.102E-02
RMM:   5    -0.445102529171E-01   -0.15482E-04   -0.45344E-06  3939   0.278E-03    0.353E-03
RMM:   6    -0.445036889532E-01    0.65640E-05   -0.75107E-07  4042   0.971E-04    0.141E-03
RMM:   7    -0.444926086743E-01    0.11080E-04   -0.77361E-07  4086   0.571E-04    0.345E-04
RMM:   8    -0.444912821814E-01    0.13265E-05   -0.69762E-07  4598   0.203E-04    0.135E-04
RMM:   9    -0.444921273782E-01   -0.84520E-06   -0.84060E-07  5098   0.124E-04    0.353E-05
 Linear response progress:
  Degree of freedom:   3/162
       N       E                     dE             d eps       ncg     rms          rms(c)
RMM:   1    -0.464259633127E-01   -0.46426E-01    0.42731E-02  5702   0.277E-01
RMM:   2    -0.436357516789E-01    0.27902E-02   -0.30062E-03  3644   0.791E-02    0.428E-02
RMM:   3    -0.436393865783E-01   -0.36349E-05   -0.15338E-04  3788   0.187E-02    0.247E-02
RMM:   4    -0.436448011597E-01   -0.54146E-05   -0.19666E-05  3941   0.570E-03    0.101E-02
RMM:   5    -0.436431342890E-01    0.16669E-05   -0.90040E-06  3934   0.307E-03    0.205E-03
RMM:   6    -0.436436107300E-01   -0.47644E-06   -0.67309E-06  4199   0.698E-04    0.117E-03
 Linear response progress:
  Degree of freedom:   4/162
       N       E                     dE             d eps       ncg     rms          rms(c)
RMM:   1    -0.449366630967E-01   -0.44937E-01    0.40128E-02  5514   0.274E-01
RMM:   2    -0.423990049716E-01    0.25377E-02   -0.28224E-03  3660   0.764E-02    0.401E-02
RMM:   3    -0.424715100417E-01   -0.72505E-04   -0.12711E-04  3821   0.182E-02    0.232E-02
RMM:   4    -0.425024814313E-01   -0.30971E-04    0.12632E-05  3980   0.540E-03    0.106E-02
RMM:   5    -0.425130992300E-01   -0.10618E-04    0.23063E-05  3939   0.339E-03    0.224E-03
RMM:   6    -0.425082091739E-01    0.48901E-05    0.56829E-05  4223   0.859E-04    0.127E-03
RMM:   7    -0.425062043615E-01    0.20048E-05    0.54779E-05  4323   0.407E-04    0.572E-04
RMM:   8    -0.425054405860E-01    0.76378E-06    0.54887E-05  4461   0.303E-04    0.122E-04
RMM:   9    -0.425056921780E-01   -0.25159E-06    0.55272E-05  5379   0.163E-04    0.481E-05
RMM:  10    -0.425068077412E-01   -0.11156E-05    0.45348E-05  6066   0.144E-04    0.150E-05
RMM:  11    -0.425066921007E-01    0.11564E-06    0.44074E-05  6563   0.136E-04    0.603E-06
RMM:  12    -0.425070049349E-01   -0.31283E-06    0.44765E-05  6615   0.135E-04    0.249E-06
RMM:  13    -0.425065446824E-01    0.46025E-06    0.48319E-05  6654   0.135E-04    0.108E-06
 Linear response progress:
  Degree of freedom:   5/162
       N       E                     dE             d eps       ncg     rms          rms(c)
RMM:   1    -0.458633370806E-01   -0.45863E-01    0.37599E-02  5476   0.270E-01
RMM:   2    -0.443332070448E-01    0.15301E-02   -0.26402E-03  3688   0.727E-02    0.425E-02
RMM:   3    -0.444311216740E-01   -0.97915E-04   -0.12434E-04  3851   0.172E-02    0.240E-02
RMM:   4    -0.444947663384E-01   -0.63645E-04   -0.22846E-05  3934   0.625E-03    0.102E-02
RMM:   5    -0.445102530397E-01   -0.15487E-04   -0.44679E-06  3940   0.278E-03    0.353E-03
RMM:   6    -0.445036935500E-01    0.65595E-05   -0.69488E-07  4048   0.971E-04    0.141E-03
RMM:   7    -0.444926136967E-01    0.11080E-04   -0.71638E-07  4089   0.571E-04    0.345E-04
RMM:   8    -0.444912865751E-01    0.13271E-05   -0.64544E-07  4596   0.204E-04    0.135E-04
RMM:   9    -0.444921336218E-01   -0.84705E-06   -0.63812E-07  5091   0.126E-04    0.353E-05
 Linear response progress:
  Degree of freedom:   6/162
       N       E                     dE             d eps       ncg     rms          rms(c)
RMM:   1    -0.464259632589E-01   -0.46426E-01    0.42731E-02  5701   0.277E-01
RMM:   2    -0.436357484524E-01    0.27902E-02   -0.30065E-03  3644   0.791E-02    0.428E-02
RMM:   3    -0.436393921530E-01   -0.36437E-05   -0.15339E-04  3788   0.187E-02    0.247E-02
RMM:   4    -0.436447985297E-01   -0.54064E-05   -0.19622E-05  3941   0.570E-03    0.101E-02
RMM:   5    -0.436431313527E-01    0.16672E-05   -0.89981E-06  3934   0.307E-03    0.205E-03
RMM:   6    -0.436436084711E-01   -0.47712E-06   -0.67314E-06  4195   0.698E-04    0.117E-03
 Linear response progress:
  Degree of freedom:   7/162
       N       E                     dE             d eps       ncg     rms          rms(c)
RMM:   1    -0.449547869928E-01   -0.44955E-01    0.39955E-02  5518   0.275E-01
RMM:   2    -0.423989725548E-01    0.25558E-02   -0.28227E-03  3665   0.764E-02    0.401E-02
RMM:   3    -0.424715212257E-01   -0.72549E-04   -0.12714E-04  3825   0.182E-02    0.232E-02
RMM:   4    -0.425024816240E-01   -0.30960E-04    0.12602E-05  3980   0.540E-03    0.106E-02
RMM:   5    -0.425130968236E-01   -0.10615E-04    0.23036E-05  3939   0.339E-03    0.224E-03
RMM:   6    -0.425082071520E-01    0.48897E-05    0.56799E-05  4222   0.860E-04    0.127E-03
RMM:   7    -0.425062017718E-01    0.20054E-05    0.54751E-05  4323   0.408E-04    0.572E-04
RMM:   8    -0.425054517657E-01    0.75001E-06    0.54707E-05  4462   0.304E-04    0.122E-04
RMM:   9    -0.425056260035E-01   -0.17424E-06    0.55875E-05  5362   0.163E-04    0.481E-05
RMM:  10    -0.425069091997E-01   -0.12832E-05    0.45849E-05  6038   0.144E-04    0.150E-05
RMM:  11    -0.425067343592E-01    0.17484E-06    0.47692E-05  6550   0.137E-04    0.604E-06
RMM:  12    -0.425071048131E-01   -0.37045E-06    0.45768E-05  6599   0.136E-04    0.249E-06
RMM:  13    -0.425066093101E-01    0.49550E-06    0.50140E-05  6631   0.135E-04    0.108E-06
 Linear response progress:
  Degree of freedom:   8/162
       N       E                     dE             d eps       ncg     rms          rms(c)
RMM:   1    -0.458645992383E-01   -0.45865E-01    0.37584E-02  5478   0.271E-01
RMM:   2    -0.443331284377E-01    0.15315E-02   -0.26442E-03  3685   0.728E-02    0.425E-02
RMM:   3    -0.444311269043E-01   -0.97998E-04   -0.12455E-04  3851   0.172E-02    0.240E-02
RMM:   4    -0.444947782184E-01   -0.63651E-04   -0.22899E-05  3934   0.625E-03    0.102E-02
RMM:   5    -0.445102637651E-01   -0.15486E-04   -0.45177E-06  3941   0.278E-03    0.353E-03
RMM:   6    -0.445037014537E-01    0.65623E-05   -0.73886E-07  4043   0.971E-04    0.141E-03
RMM:   7    -0.444926203280E-01    0.11081E-04   -0.76001E-07  4089   0.571E-04    0.345E-04
RMM:   8    -0.444912939147E-01    0.13264E-05   -0.67344E-07  4594   0.204E-04    0.135E-04
RMM:   9    -0.444921354213E-01   -0.84151E-06   -0.67365E-07  5095   0.126E-04    0.353E-05
 Linear response progress:
  Degree of freedom:   9/162
       N       E                     dE             d eps       ncg     rms          rms(c)
RMM:   1    -0.464453508392E-01   -0.46445E-01    0.42525E-02  5693   0.278E-01
RMM:   2    -0.436355781155E-01    0.28098E-02   -0.30117E-03  3645   0.792E-02    0.428E-02
RMM:   3    -0.436393746398E-01   -0.37965E-05   -0.15352E-04  3791   0.187E-02    0.247E-02
RMM:   4    -0.436447916305E-01   -0.54170E-05   -0.19639E-05  3942   0.570E-03    0.101E-02
RMM:   5    -0.436431273668E-01    0.16643E-05   -0.89961E-06  3937   0.307E-03    0.205E-03
RMM:   6    -0.436436041476E-01   -0.47678E-06   -0.67210E-06  4196   0.698E-04    0.117E-03
 Linear response progress:
  Degree of freedom:  10/162
       N       E                     dE             d eps       ncg     rms          rms(c)
RMM:   1    -0.449547860778E-01   -0.44955E-01    0.39955E-02  5516   0.275E-01
RMM:   2    -0.423989659623E-01    0.25558E-02   -0.28222E-03  3663   0.764E-02    0.401E-02
RMM:   3    -0.424715126904E-01   -0.72547E-04   -0.12708E-04  3825   0.182E-02    0.232E-02
RMM:   4    -0.425024701903E-01   -0.30957E-04    0.12678E-05  3979   0.540E-03    0.106E-02
RMM:   5    -0.425130924295E-01   -0.10622E-04    0.23075E-05  3939   0.339E-03    0.224E-03
RMM:   6    -0.425082025103E-01    0.48899E-05    0.56835E-05  4218   0.859E-04    0.127E-03
RMM:   7    -0.425061937592E-01    0.20088E-05    0.54833E-05  4326   0.407E-04    0.572E-04
RMM:   8    -0.425054904337E-01    0.70333E-06    0.54411E-05  4458   0.303E-04    0.122E-04
RMM:   9    -0.425051498108E-01    0.34062E-06    0.59980E-05  5394   0.162E-04    0.481E-05
RMM:  10    -0.425074976257E-01   -0.23478E-05    0.23453E-05  6089   0.142E-04    0.150E-05
RMM:  11    -0.425071283676E-01    0.36926E-06    0.19130E-05  6627   0.134E-04    0.606E-06
RMM:  12    -0.425071264134E-01    0.19542E-08    0.20017E-05  6659   0.133E-04    0.247E-06
RMM:  13    -0.425067463883E-01    0.38003E-06    0.21989E-05  6680   0.133E-04    0.109E-06
 Linear response progress:
  Degree of freedom:  11/162
       N       E                     dE             d eps       ncg     rms          rms(c)
RMM:   1    -0.458645983139E-01   -0.45865E-01    0.37584E-02  5477   0.271E-01
RMM:   2    -0.443331795821E-01    0.15314E-02   -0.26430E-03  3685   0.728E-02    0.425E-02
RMM:   3    -0.444311148162E-01   -0.97935E-04   -0.12459E-04  3850   0.172E-02    0.240E-02
RMM:   4    -0.444947500155E-01   -0.63635E-04   -0.22880E-05  3933   0.625E-03    0.102E-02
RMM:   5    -0.445102367980E-01   -0.15487E-04   -0.45012E-06  3940   0.278E-03    0.353E-03
RMM:   6    -0.445036785129E-01    0.65583E-05   -0.72237E-07  4040   0.971E-04    0.141E-03
RMM:   7    -0.444925998114E-01    0.11079E-04   -0.74513E-07  4088   0.571E-04    0.345E-04
RMM:   8    -0.444912723782E-01    0.13274E-05   -0.64325E-07  4600   0.203E-04    0.135E-04
RMM:   9    -0.444921168899E-01   -0.84451E-06   -0.81778E-07  5105   0.124E-04    0.353E-05
 Linear response progress:
  Degree of freedom:  12/162
       N       E                     dE             d eps       ncg     rms          rms(c)
RMM:   1    -0.464453500128E-01   -0.46445E-01    0.42525E-02  5692   0.278E-01
RMM:   2    -0.436355923732E-01    0.28098E-02   -0.30113E-03  3645   0.792E-02    0.428E-02
RMM:   3    -0.436393609595E-01   -0.37686E-05   -0.15346E-04  3791   0.187E-02    0.247E-02
RMM:   4    -0.436447879690E-01   -0.54270E-05   -0.19642E-05  3941   0.570E-03    0.101E-02
RMM:   5    -0.436431300847E-01    0.16579E-05   -0.90024E-06  3933   0.307E-03    0.205E-03
RMM:   6    -0.436436084880E-01   -0.47840E-06   -0.67378E-06  4198   0.698E-04    0.117E-03
 Linear response progress:
  Degree of freedom:  13/162
       N       E                     dE             d eps       ncg     rms          rms(c)
RMM:   1    -0.449309651656E-01   -0.44931E-01    0.40184E-02  5512   0.274E-01
RMM:   2    -0.423989680964E-01    0.25320E-02   -0.28187E-03  3659   0.764E-02    0.401E-02
RMM:   3    -0.424715087685E-01   -0.72541E-04   -0.12697E-04  3821   0.182E-02    0.232E-02
RMM:   4    -0.425024836493E-01   -0.30975E-04    0.12665E-05  3979   0.540E-03    0.106E-02
RMM:   5    -0.425131038237E-01   -0.10620E-04    0.23079E-05  3940   0.339E-03    0.224E-03
RMM:   6    -0.425082119082E-01    0.48919E-05    0.56843E-05  4218   0.859E-04    0.127E-03
RMM:   7    -0.425062052516E-01    0.20067E-05    0.54816E-05  4323   0.407E-04    0.572E-04
RMM:   8    -0.425054378297E-01    0.76742E-06    0.55028E-05  4462   0.303E-04    0.122E-04
RMM:   9    -0.425055349403E-01   -0.97111E-07    0.56733E-05  5385   0.162E-04    0.481E-05
RMM:  10    -0.425070888358E-01   -0.15539E-05    0.35016E-05  6100   0.142E-04    0.150E-05
RMM:  11    -0.425071957530E-01   -0.10692E-06    0.24788E-05  6636   0.134E-04    0.604E-06
RMM:  12    -0.425069255489E-01    0.27020E-06    0.24756E-05  6672   0.133E-04    0.246E-06
RMM:  13    -0.425067187902E-01    0.20676E-06    0.27517E-05  6698   0.133E-04    0.109E-06
 Linear response progress:
  Degree of freedom:  14/162
       N       E                     dE             d eps       ncg     rms          rms(c)
RMM:   1    -0.458702790410E-01   -0.45870E-01    0.37528E-02  5467   0.270E-01
RMM:   2    -0.443332383615E-01    0.15370E-02   -0.26446E-03  3689   0.728E-02    0.425E-02
RMM:   3    -0.444311136899E-01   -0.97875E-04   -0.12446E-04  3854   0.172E-02    0.240E-02
RMM:   4    -0.444947531192E-01   -0.63639E-04   -0.22836E-05  3936   0.625E-03    0.102E-02
RMM:   5    -0.445102382817E-01   -0.15485E-04   -0.44583E-06  3940   0.278E-03    0.353E-03
RMM:   6    -0.445036804919E-01    0.65578E-05   -0.68465E-07  4048   0.971E-04    0.141E-03
RMM:   7    -0.444926037587E-01    0.11077E-04   -0.70761E-07  4081   0.571E-04    0.345E-04
RMM:   8    -0.444912777954E-01    0.13260E-05   -0.60874E-07  4607   0.204E-04    0.135E-04
RMM:   9    -0.444921256098E-01   -0.84781E-06   -0.75952E-07  5098   0.125E-04    0.353E-05
 Linear response progress:
  Degree of freedom:  15/162
       N       E                     dE             d eps       ncg     rms          rms(c)
RMM:   1    -0.464298339284E-01   -0.46430E-01    0.42687E-02  5690   0.278E-01
RMM:   2    -0.436357530201E-01    0.27941E-02   -0.30091E-03  3645   0.792E-02    0.428E-02
RMM:   3    -0.436393651145E-01   -0.36121E-05   -0.15340E-04  3791   0.187E-02    0.247E-02
RMM:   4    -0.436447843924E-01   -0.54193E-05   -0.19599E-05  3940   0.570E-03    0.101E-02
RMM:   5    -0.436431277150E-01    0.16567E-05   -0.89765E-06  3937   0.307E-03    0.205E-03
RMM:   6    -0.436436053172E-01   -0.47760E-06   -0.67165E-06  4195   0.698E-04    0.117E-03
 Linear response progress:
  Degree of freedom:  16/162
       N       E                     dE             d eps       ncg     rms          rms(c)
RMM:   1    -0.449309655705E-01   -0.44931E-01    0.40184E-02  5510   0.274E-01
RMM:   2    -0.423989437025E-01    0.25320E-02   -0.28184E-03  3656   0.764E-02    0.401E-02
RMM:   3    -0.424715069647E-01   -0.72563E-04   -0.12695E-04  3820   0.182E-02    0.232E-02
RMM:   4    -0.425024834174E-01   -0.30976E-04    0.12640E-05  3979   0.540E-03    0.106E-02
RMM:   5    -0.425131023981E-01   -0.10619E-04    0.23060E-05  3940   0.339E-03    0.224E-03
RMM:   6    -0.425082119365E-01    0.48905E-05    0.56814E-05  4222   0.859E-04    0.127E-03
RMM:   7    -0.425062046860E-01    0.20073E-05    0.54785E-05  4320   0.407E-04    0.572E-04
RMM:   8    -0.425054790994E-01    0.72559E-06    0.54493E-05  4465   0.303E-04    0.122E-04
RMM:   9    -0.425052094387E-01    0.26966E-06    0.59957E-05  5383   0.162E-04    0.481E-05
RMM:  10    -0.425072437183E-01   -0.20343E-05    0.40423E-05  6092   0.142E-04    0.150E-05
RMM:  11    -0.425070418219E-01    0.20190E-06    0.37528E-05  6626   0.135E-04    0.606E-06
RMM:  12    -0.425070790914E-01   -0.37270E-07    0.33370E-05  6661   0.134E-04    0.250E-06
RMM:  13    -0.425067213353E-01    0.35776E-06    0.35374E-05  6697   0.133E-04    0.110E-06
 Linear response progress:
  Degree of freedom:  17/162
       N       E                     dE             d eps       ncg     rms          rms(c)
RMM:   1    -0.458702794643E-01   -0.45870E-01    0.37528E-02  5468   0.270E-01
RMM:   2    -0.443331812907E-01    0.15371E-02   -0.26470E-03  3689   0.728E-02    0.425E-02
RMM:   3    -0.444311471604E-01   -0.97966E-04   -0.12457E-04  3858   0.172E-02    0.240E-02
RMM:   4    -0.444947851060E-01   -0.63638E-04   -0.22910E-05  3935   0.625E-03    0.102E-02
RMM:   5    -0.445102644961E-01   -0.15479E-04   -0.45308E-06  3939   0.278E-03    0.353E-03
RMM:   6    -0.445036984570E-01    0.65660E-05   -0.74674E-07  4043   0.971E-04    0.141E-03
RMM:   7    -0.444926183525E-01    0.11080E-04   -0.76745E-07  4086   0.571E-04    0.345E-04
RMM:   8    -0.444912917793E-01    0.13266E-05   -0.66694E-07  4599   0.203E-04    0.135E-04
RMM:   9    -0.444921409598E-01   -0.84918E-06   -0.82861E-07  5105   0.124E-04    0.353E-05
 Linear response progress:
  Degree of freedom:  18/162
       N       E                     dE             d eps       ncg     rms          rms(c)
RMM:   1    -0.464298341306E-01   -0.46430E-01    0.42687E-02  5691   0.278E-01
RMM:   2    -0.436357419736E-01    0.27941E-02   -0.30092E-03  3645   0.792E-02    0.428E-02
RMM:   3    -0.436393724556E-01   -0.36305E-05   -0.15346E-04  3791   0.187E-02    0.247E-02
RMM:   4    -0.436447905869E-01   -0.54181E-05   -0.19646E-05  3942   0.570E-03    0.101E-02
RMM:   5    -0.436431271204E-01    0.16635E-05   -0.89829E-06  3939   0.307E-03    0.205E-03
RMM:   6    -0.436436029418E-01   -0.47582E-06   -0.67061E-06  4197   0.698E-04    0.117E-03
 Linear response progress:
  Degree of freedom:  19/162
       N       E                     dE             d eps       ncg     rms          rms(c)
RMM:   1    -0.449415913963E-01   -0.44942E-01    0.40080E-02  5515   0.274E-01
RMM:   2    -0.423985787845E-01    0.25430E-02   -0.28180E-03  3663   0.764E-02    0.401E-02
RMM:   3    -0.424714919254E-01   -0.72913E-04   -0.12702E-04  3822   0.182E-02    0.232E-02
RMM:   4    -0.425024674799E-01   -0.30976E-04    0.12629E-05  3978   0.540E-03    0.106E-02
RMM:   5    -0.425130856598E-01   -0.10618E-04    0.23061E-05  3940   0.339E-03    0.224E-03
RMM:   6    -0.425081961686E-01    0.48895E-05    0.56819E-05  4221   0.859E-04    0.127E-03
RMM:   7    -0.425061875478E-01    0.20086E-05    0.54801E-05  4320   0.407E-04    0.572E-04
RMM:   8    -0.425054831690E-01    0.70438E-06    0.54301E-05  4461   0.303E-04    0.122E-04
RMM:   9    -0.425050749760E-01    0.40819E-06    0.61153E-05  5385   0.162E-04    0.481E-05
RMM:  10    -0.425070920496E-01   -0.20171E-05    0.41965E-05  6076   0.142E-04    0.150E-05
RMM:  11    -0.425070045437E-01    0.87506E-07    0.44924E-05  6588   0.135E-04    0.605E-06
RMM:  12    -0.425069970173E-01    0.75263E-08    0.46097E-05  6624   0.134E-04    0.248E-06
RMM:  13    -0.425067221977E-01    0.27482E-06    0.47209E-05  6656   0.133E-04    0.110E-06
 Linear response progress:
  Degree of freedom:  20/162
       N       E                     dE             d eps       ncg     rms          rms(c)
RMM:   1    -0.458639355494E-01   -0.45864E-01    0.37593E-02  5483   0.270E-01
RMM:   2    -0.443331921548E-01    0.15307E-02   -0.26418E-03  3688   0.727E-02    0.425E-02
RMM:   3    -0.444311372521E-01   -0.97945E-04   -0.12439E-04  3855   0.172E-02    0.240E-02
RMM:   4    -0.444947838200E-01   -0.63647E-04   -0.22887E-05  3936   0.625E-03    0.102E-02
RMM:   5    -0.445102681325E-01   -0.15484E-04   -0.45083E-06  3941   0.278E-03    0.353E-03
RMM:   6    -0.445037054100E-01    0.65627E-05   -0.73048E-07  4043   0.971E-04    0.141E-03
RMM:   7    -0.444926239942E-01    0.11081E-04   -0.75296E-07  4088   0.571E-04    0.345E-04
RMM:   8    -0.444912981439E-01    0.13259E-05   -0.66297E-07  4598   0.203E-04    0.135E-04
RMM:   9    -0.444921442525E-01   -0.84611E-06   -0.50347E-07  5099   0.124E-04    0.353E-05
 Linear response progress:
  Degree of freedom:  21/162
       N       E                     dE             d eps       ncg     rms          rms(c)
RMM:   1    -0.464290988863E-01   -0.46429E-01    0.42691E-02  5687   0.278E-01
RMM:   2    -0.436357371105E-01    0.27934E-02   -0.30120E-03  3642   0.792E-02    0.428E-02
RMM:   3    -0.436393733070E-01   -0.36362E-05   -0.15353E-04  3789   0.187E-02    0.247E-02
RMM:   4    -0.436447914634E-01   -0.54182E-05   -0.19644E-05  3942   0.570E-03    0.101E-02
RMM:   5    -0.436431293447E-01    0.16621E-05   -0.89992E-06  3938   0.307E-03    0.205E-03
RMM:   6    -0.436436061456E-01   -0.47680E-06   -0.67236E-06  4197   0.698E-04    0.117E-03
 Linear response progress:
  Degree of freedom:  22/162
       N       E                     dE             d eps       ncg     rms          rms(c)
RMM:   1    -0.449415909141E-01   -0.44942E-01    0.40080E-02  5513   0.274E-01
RMM:   2    -0.423985626179E-01    0.25430E-02   -0.28177E-03  3661   0.764E-02    0.401E-02
RMM:   3    -0.424714866460E-01   -0.72924E-04   -0.12701E-04  3821   0.182E-02    0.232E-02
RMM:   4    -0.425024627003E-01   -0.30976E-04    0.12626E-05  3978   0.540E-03    0.106E-02
RMM:   5    -0.425130841072E-01   -0.10621E-04    0.23035E-05  3940   0.339E-03    0.224E-03
RMM:   6    -0.425081941817E-01    0.48899E-05    0.56794E-05  4221   0.859E-04    0.127E-03
RMM:   7    -0.425061874464E-01    0.20067E-05    0.54767E-05  4321   0.407E-04    0.572E-04
RMM:   8    -0.425054593474E-01    0.72810E-06    0.54582E-05  4462   0.303E-04    0.122E-04
RMM:   9    -0.425053860711E-01    0.73276E-07    0.58600E-05  5375   0.163E-04    0.481E-05
RMM:  10    -0.425071151101E-01   -0.17290E-05    0.41020E-05  6055   0.143E-04    0.150E-05
RMM:  11    -0.425069193742E-01    0.19574E-06    0.39047E-05  6549   0.136E-04    0.606E-06
RMM:  12    -0.425070163455E-01   -0.96971E-07    0.39708E-05  6594   0.135E-04    0.249E-06
RMM:  13    -0.425066739017E-01    0.34244E-06    0.40960E-05  6643   0.134E-04    0.109E-06
 Linear response progress:
  Degree of freedom:  23/162
       N       E                     dE             d eps       ncg     rms          rms(c)
RMM:   1    -0.458639352621E-01   -0.45864E-01    0.37593E-02  5480   0.270E-01
RMM:   2    -0.443332420787E-01    0.15307E-02   -0.26408E-03  3688   0.727E-02    0.425E-02
RMM:   3    -0.444311386662E-01   -0.97897E-04   -0.12449E-04  3854   0.172E-02    0.240E-02
RMM:   4    -0.444947724006E-01   -0.63634E-04   -0.22908E-05  3935   0.625E-03    0.102E-02
RMM:   5    -0.445102607997E-01   -0.15488E-04   -0.45359E-06  3940   0.278E-03    0.353E-03
RMM:   6    -0.445037021110E-01    0.65587E-05   -0.75312E-07  4042   0.971E-04    0.141E-03
RMM:   7    -0.444926218589E-01    0.11080E-04   -0.77428E-07  4084   0.571E-04    0.345E-04
RMM:   8    -0.444912956800E-01    0.13262E-05   -0.70525E-07  4601   0.203E-04    0.135E-04
RMM:   9    -0.444921407027E-01   -0.84502E-06   -0.68478E-07  5100   0.124E-04    0.353E-05
 Linear response progress:
  Degree of freedom:  24/162
       N       E                     dE             d eps       ncg     rms          rms(c)
RMM:   1    -0.464290986135E-01   -0.46429E-01    0.42691E-02  5686   0.278E-01
RMM:   2    -0.436357533389E-01    0.27933E-02   -0.30116E-03  3642   0.792E-02    0.428E-02
RMM:   3    -0.436393602287E-01   -0.36069E-05   -0.15350E-04  3789   0.187E-02    0.247E-02
RMM:   4    -0.436447865039E-01   -0.54263E-05   -0.19669E-05  3941   0.570E-03    0.101E-02
RMM:   5    -0.436431312163E-01    0.16553E-05   -0.90290E-06  3935   0.307E-03    0.205E-03
RMM:   6    -0.436436096177E-01   -0.47840E-06   -0.67648E-06  4198   0.698E-04    0.117E-03
 Linear response progress:
  Degree of freedom:  25/162
       N       E                     dE             d eps       ncg     rms          rms(c)
RMM:   1    -0.449622160596E-01   -0.44962E-01    0.39878E-02  5512   0.274E-01
RMM:   2    -0.423987185196E-01    0.25635E-02   -0.28217E-03  3662   0.764E-02    0.401E-02
RMM:   3    -0.424714903173E-01   -0.72772E-04   -0.12711E-04  3824   0.182E-02    0.232E-02
RMM:   4    -0.425024488321E-01   -0.30959E-04    0.12648E-05  3978   0.540E-03    0.106E-02
RMM:   5    -0.425130713849E-01   -0.10623E-04    0.23061E-05  3939   0.339E-03    0.224E-03
RMM:   6    -0.425081842703E-01    0.48871E-05    0.56817E-05  4218   0.859E-04    0.127E-03
RMM:   7    -0.425061774586E-01    0.20068E-05    0.54794E-05  4327   0.407E-04    0.572E-04
RMM:   8    -0.425054256066E-01    0.75185E-06    0.54828E-05  4457   0.303E-04    0.122E-04
RMM:   9    -0.425057283020E-01   -0.30270E-06    0.54959E-05  5364   0.163E-04    0.481E-05
RMM:  10    -0.425069397943E-01   -0.12115E-05    0.45119E-05  6050   0.144E-04    0.150E-05
RMM:  11    -0.425066354593E-01    0.30433E-06    0.48647E-05  6566   0.136E-04    0.605E-06
RMM:  12    -0.425070900772E-01   -0.45462E-06    0.47336E-05  6617   0.135E-04    0.249E-06
RMM:  13    -0.425065752251E-01    0.51485E-06    0.52521E-05  6659   0.135E-04    0.109E-06
 Linear response progress:
  Degree of freedom:  26/162
       N       E                     dE             d eps       ncg     rms          rms(c)
RMM:   1    -0.458673007842E-01   -0.45867E-01    0.37556E-02  5470   0.271E-01
RMM:   2    -0.443332153846E-01    0.15341E-02   -0.26454E-03  3687   0.728E-02    0.425E-02
RMM:   3    -0.444311072641E-01   -0.97892E-04   -0.12457E-04  3850   0.172E-02    0.240E-02
RMM:   4    -0.444947563748E-01   -0.63649E-04   -0.22882E-05  3935   0.625E-03    0.102E-02
RMM:   5    -0.445102467011E-01   -0.15490E-04   -0.45011E-06  3941   0.278E-03    0.353E-03
RMM:   6    -0.445036907895E-01    0.65559E-05   -0.72425E-07  4046   0.971E-04    0.141E-03
RMM:   7    -0.444926126080E-01    0.11078E-04   -0.74841E-07  4081   0.571E-04    0.345E-04
RMM:   8    -0.444912862849E-01    0.13263E-05   -0.66085E-07  4603   0.203E-04    0.135E-04
RMM:   9    -0.444921297214E-01   -0.84344E-06   -0.73934E-07  5111   0.124E-04    0.353E-05
 Linear response progress:
  Degree of freedom:  27/162
       N       E                     dE             d eps       ncg     rms          rms(c)
RMM:   1    -0.464389047620E-01   -0.46439E-01    0.42584E-02  5700   0.278E-01
RMM:   2    -0.436356839697E-01    0.28032E-02   -0.30074E-03  3641   0.792E-02    0.428E-02
RMM:   3    -0.436393745229E-01   -0.36906E-05   -0.15344E-04  3786   0.187E-02    0.247E-02
RMM:   4    -0.436447912004E-01   -0.54167E-05   -0.19643E-05  3940   0.570E-03    0.101E-02
RMM:   5    -0.436431298069E-01    0.16614E-05   -0.90241E-06  3938   0.307E-03    0.205E-03
RMM:   6    -0.436436071717E-01   -0.47736E-06   -0.67576E-06  4195   0.698E-04    0.117E-03
 Linear response progress:
  Degree of freedom:  28/162
       N       E                     dE             d eps       ncg     rms          rms(c)
RMM:   1    -0.449622162978E-01   -0.44962E-01    0.39878E-02  5512   0.274E-01
RMM:   2    -0.423987100292E-01    0.25635E-02   -0.28214E-03  3661   0.764E-02    0.401E-02
RMM:   3    -0.424714885379E-01   -0.72779E-04   -0.12702E-04  3824   0.182E-02    0.232E-02
RMM:   4    -0.425024557150E-01   -0.30967E-04    0.12637E-05  3978   0.540E-03    0.106E-02
RMM:   5    -0.425130787672E-01   -0.10623E-04    0.23056E-05  3939   0.339E-03    0.224E-03
RMM:   6    -0.425081914700E-01    0.48873E-05    0.56812E-05  4222   0.859E-04    0.127E-03
RMM:   7    -0.425061833637E-01    0.20081E-05    0.54804E-05  4324   0.407E-04    0.572E-04
RMM:   8    -0.425054809158E-01    0.70245E-06    0.54312E-05  4458   0.303E-04    0.122E-04
RMM:   9    -0.425050591431E-01    0.42177E-06    0.61596E-05  5382   0.162E-04    0.481E-05
RMM:  10    -0.425074370995E-01   -0.23780E-05    0.34329E-05  6085   0.142E-04    0.150E-05
RMM:  11    -0.425069305581E-01    0.50654E-06    0.39947E-05  6634   0.134E-04    0.607E-06
RMM:  12    -0.425071331782E-01   -0.20262E-06    0.44335E-05  6662   0.133E-04    0.252E-06
RMM:  13    -0.425066143421E-01    0.51884E-06    0.48014E-05  6688   0.133E-04    0.109E-06
 Linear response progress:
  Degree of freedom:  29/162
       N       E                     dE             d eps       ncg     rms          rms(c)
RMM:   1    -0.458673009937E-01   -0.45867E-01    0.37556E-02  5473   0.271E-01
RMM:   2    -0.443331581085E-01    0.15341E-02   -0.26479E-03  3687   0.728E-02    0.425E-02
RMM:   3    -0.444311371555E-01   -0.97979E-04   -0.12466E-04  3853   0.172E-02    0.240E-02
RMM:   4    -0.444947820901E-01   -0.63645E-04   -0.22907E-05  3935   0.625E-03    0.102E-02
RMM:   5    -0.445102662686E-01   -0.15484E-04   -0.45276E-06  3939   0.278E-03    0.353E-03
RMM:   6    -0.445037017745E-01    0.65645E-05   -0.74336E-07  4041   0.971E-04    0.141E-03
RMM:   7    -0.444926203538E-01    0.11081E-04   -0.76604E-07  4090   0.571E-04    0.345E-04
RMM:   8    -0.444912955724E-01    0.13248E-05   -0.67352E-07  4596   0.203E-04    0.135E-04
RMM:   9    -0.444921376778E-01   -0.84211E-06   -0.78427E-07  5100   0.125E-04    0.353E-05
 Linear response progress:
  Degree of freedom:  30/162
       N       E                     dE             d eps       ncg     rms          rms(c)
RMM:   1    -0.464389051643E-01   -0.46439E-01    0.42584E-02  5701   0.278E-01
RMM:   2    -0.436356626383E-01    0.28032E-02   -0.30077E-03  3639   0.792E-02    0.428E-02
RMM:   3    -0.436393826682E-01   -0.37200E-05   -0.15346E-04  3786   0.187E-02    0.247E-02
RMM:   4    -0.436447979905E-01   -0.54153E-05   -0.19658E-05  3942   0.570E-03    0.101E-02
RMM:   5    -0.436431278917E-01    0.16701E-05   -0.89999E-06  3938   0.307E-03    0.205E-03
RMM:   6    -0.436436039930E-01   -0.47610E-06   -0.67240E-06  4196   0.698E-04    0.117E-03
 Linear response progress:
  Degree of freedom:  31/162
       N       E                     dE             d eps       ncg     rms          rms(c)
RMM:   1    -0.449432905205E-01   -0.44943E-01    0.40064E-02  5519   0.274E-01
RMM:   2    -0.423986012788E-01    0.25447E-02   -0.28154E-03  3661   0.764E-02    0.401E-02
RMM:   3    -0.424714957834E-01   -0.72895E-04   -0.12692E-04  3820   0.182E-02    0.232E-02
RMM:   4    -0.425024709109E-01   -0.30975E-04    0.12641E-05  3980   0.540E-03    0.106E-02
RMM:   5    -0.425130885728E-01   -0.10618E-04    0.23052E-05  3939   0.339E-03    0.224E-03
RMM:   6    -0.425082000769E-01    0.48885E-05    0.56812E-05  4221   0.859E-04    0.127E-03
RMM:   7    -0.425061935521E-01    0.20065E-05    0.54781E-05  4321   0.407E-04    0.572E-04
RMM:   8    -0.425054253512E-01    0.76820E-06    0.54965E-05  4460   0.303E-04    0.122E-04
RMM:   9    -0.425059339789E-01   -0.50863E-06    0.53261E-05  5370   0.163E-04    0.481E-05
RMM:  10    -0.425067311052E-01   -0.79713E-06    0.46301E-05  6038   0.144E-04    0.150E-05
RMM:  11    -0.425067960002E-01   -0.64895E-07    0.37405E-05  6546   0.136E-04    0.605E-06
RMM:  12    -0.425070135746E-01   -0.21757E-06    0.28340E-05  6603   0.135E-04    0.249E-06
RMM:  13    -0.425065947746E-01    0.41880E-06    0.32429E-05  6661   0.135E-04    0.109E-06
 Linear response progress:
  Degree of freedom:  32/162
       N       E                     dE             d eps       ncg     rms          rms(c)
RMM:   1    -0.458682549286E-01   -0.45868E-01    0.37549E-02  5486   0.270E-01
RMM:   2    -0.443332042522E-01    0.15351E-02   -0.26407E-03  3687   0.727E-02    0.425E-02
RMM:   3    -0.444311513816E-01   -0.97947E-04   -0.12456E-04  3854   0.172E-02    0.240E-02
RMM:   4    -0.444947816931E-01   -0.63630E-04   -0.22903E-05  3936   0.625E-03    0.102E-02
RMM:   5    -0.445102663019E-01   -0.15485E-04   -0.45327E-06  3939   0.278E-03    0.353E-03
RMM:   6    -0.445037057794E-01    0.65605E-05   -0.74770E-07  4043   0.971E-04    0.141E-03
RMM:   7    -0.444926251855E-01    0.11081E-04   -0.76990E-07  4088   0.571E-04    0.345E-04
RMM:   8    -0.444912993836E-01    0.13258E-05   -0.66666E-07  4603   0.203E-04    0.135E-04
RMM:   9    -0.444921454966E-01   -0.84611E-06   -0.66446E-07  5091   0.124E-04    0.353E-05
 Linear response progress:
  Degree of freedom:  33/162
       N       E                     dE             d eps       ncg     rms          rms(c)
RMM:   1    -0.464365499582E-01   -0.46437E-01    0.42613E-02  5701   0.278E-01
RMM:   2    -0.436356137661E-01    0.28009E-02   -0.30102E-03  3642   0.792E-02    0.428E-02
RMM:   3    -0.436393597799E-01   -0.37460E-05   -0.15353E-04  3789   0.187E-02    0.247E-02
RMM:   4    -0.436447848425E-01   -0.54251E-05   -0.19671E-05  3942   0.570E-03    0.101E-02
RMM:   5    -0.436431268287E-01    0.16580E-05   -0.90073E-06  3939   0.307E-03    0.205E-03
RMM:   6    -0.436436051237E-01   -0.47829E-06   -0.67375E-06  4198   0.698E-04    0.117E-03
 Linear response progress:
  Degree of freedom:  34/162
       N       E                     dE             d eps       ncg     rms          rms(c)
RMM:   1    -0.449432906301E-01   -0.44943E-01    0.40064E-02  5519   0.274E-01
RMM:   2    -0.423986287325E-01    0.25447E-02   -0.28159E-03  3661   0.764E-02    0.401E-02
RMM:   3    -0.424715056435E-01   -0.72877E-04   -0.12703E-04  3821   0.182E-02    0.232E-02
RMM:   4    -0.425024723974E-01   -0.30967E-04    0.12642E-05  3980   0.540E-03    0.106E-02
RMM:   5    -0.425130868038E-01   -0.10614E-04    0.23069E-05  3939   0.339E-03    0.224E-03
RMM:   6    -0.425081977274E-01    0.48891E-05    0.56827E-05  4221   0.859E-04    0.127E-03
RMM:   7    -0.425061896976E-01    0.20080E-05    0.54813E-05  4321   0.407E-04    0.572E-04
RMM:   8    -0.425055034847E-01    0.68621E-06    0.54194E-05  4461   0.303E-04    0.122E-04
RMM:   9    -0.425049443165E-01    0.55917E-06    0.62981E-05  5377   0.163E-04    0.481E-05
RMM:  10    -0.425071204243E-01   -0.21761E-05    0.43962E-05  6053   0.143E-04    0.150E-05
RMM:  11    -0.425069498213E-01    0.17060E-06    0.42663E-05  6583   0.136E-04    0.606E-06
RMM:  12    -0.425069847890E-01   -0.34968E-07    0.39507E-05  6631   0.135E-04    0.246E-06
RMM:  13    -0.425066818625E-01    0.30293E-06    0.43274E-05  6669   0.134E-04    0.109E-06
 Linear response progress:
  Degree of freedom:  35/162
       N       E                     dE             d eps       ncg     rms          rms(c)
RMM:   1    -0.458682549122E-01   -0.45868E-01    0.37549E-02  5486   0.270E-01
RMM:   2    -0.443332126951E-01    0.15350E-02   -0.26392E-03  3687   0.727E-02    0.425E-02
RMM:   3    -0.444311222730E-01   -0.97910E-04   -0.12439E-04  3855   0.172E-02    0.240E-02
RMM:   4    -0.444947680478E-01   -0.63646E-04   -0.22867E-05  3934   0.625E-03    0.102E-02
RMM:   5    -0.445102538107E-01   -0.15486E-04   -0.44864E-06  3941   0.278E-03    0.353E-03
RMM:   6    -0.445036987972E-01    0.65550E-05   -0.71398E-07  4048   0.971E-04    0.141E-03
RMM:   7    -0.444926200107E-01    0.11079E-04   -0.73830E-07  4088   0.571E-04    0.345E-04
RMM:   8    -0.444912949467E-01    0.13251E-05   -0.70995E-07  4600   0.203E-04    0.135E-04
RMM:   9    -0.444921405654E-01   -0.84562E-06   -0.10116E-06  5101   0.124E-04    0.353E-05
 Linear response progress:
  Degree of freedom:  36/162
       N       E                     dE             d eps       ncg     rms          rms(c)
RMM:   1    -0.464365500522E-01   -0.46437E-01    0.42613E-02  5700   0.278E-01
RMM:   2    -0.436356177722E-01    0.28009E-02   -0.30104E-03  3642   0.792E-02    0.428E-02
RMM:   3    -0.436393629843E-01   -0.37452E-05   -0.15355E-04  3789   0.187E-02    0.247E-02
RMM:   4    -0.436447813411E-01   -0.54184E-05   -0.19628E-05  3942   0.570E-03    0.101E-02
RMM:   5    -0.436431248187E-01    0.16565E-05   -0.89999E-06  3936   0.307E-03    0.205E-03
RMM:   6    -0.436436031509E-01   -0.47833E-06   -0.67292E-06  4195   0.698E-04    0.117E-03
 Linear response progress:
  Degree of freedom:  37/162
       N       E                     dE             d eps       ncg     rms          rms(c)
RMM:   1    -0.449417456806E-01   -0.44942E-01    0.40075E-02  5515   0.274E-01
RMM:   2    -0.423987022344E-01    0.25430E-02   -0.28186E-03  3661   0.764E-02    0.401E-02
RMM:   3    -0.424715310566E-01   -0.72829E-04   -0.12701E-04  3822   0.182E-02    0.232E-02
RMM:   4    -0.425025067414E-01   -0.30976E-04    0.12644E-05  3981   0.540E-03    0.106E-02
RMM:   5    -0.425131277557E-01   -0.10621E-04    0.23066E-05  3941   0.339E-03    0.224E-03
RMM:   6    -0.425082394658E-01    0.48883E-05    0.56820E-05  4219   0.859E-04    0.127E-03
RMM:   7    -0.425062345835E-01    0.20049E-05    0.54780E-05  4323   0.407E-04    0.572E-04
RMM:   8    -0.425054962947E-01    0.73829E-06    0.54407E-05  4465   0.303E-04    0.122E-04
RMM:   9    -0.425055181813E-01   -0.21887E-07    0.57551E-05  5368   0.163E-04    0.481E-05
RMM:  10    -0.425069435045E-01   -0.14253E-05    0.44077E-05  6059   0.143E-04    0.150E-05
RMM:  11    -0.425070151966E-01   -0.71692E-07    0.39420E-05  6569   0.136E-04    0.606E-06
RMM:  12    -0.425070041767E-01    0.11020E-07    0.42150E-05  6611   0.135E-04    0.249E-06
RMM:  13    -0.425066422238E-01    0.36195E-06    0.43007E-05  6656   0.134E-04    0.110E-06
 Linear response progress:
  Degree of freedom:  38/162
       N       E                     dE             d eps       ncg     rms          rms(c)
RMM:   1    -0.458531162250E-01   -0.45853E-01    0.37701E-02  5486   0.270E-01
RMM:   2    -0.443331806618E-01    0.15199E-02   -0.26409E-03  3689   0.727E-02    0.425E-02
RMM:   3    -0.444310555714E-01   -0.97875E-04   -0.12444E-04  3852   0.172E-02    0.240E-02
RMM:   4    -0.444946995716E-01   -0.63644E-04   -0.22896E-05  3935   0.625E-03    0.102E-02
RMM:   5    -0.445101871177E-01   -0.15488E-04   -0.45145E-06  3940   0.278E-03    0.353E-03
RMM:   6    -0.445036295561E-01    0.65576E-05   -0.73860E-07  4050   0.971E-04    0.141E-03
RMM:   7    -0.444925508744E-01    0.11079E-04   -0.76398E-07  4080   0.571E-04    0.345E-04
RMM:   8    -0.444912239636E-01    0.13269E-05   -0.69914E-07  4606   0.203E-04    0.135E-04
RMM:   9    -0.444920701000E-01   -0.84614E-06   -0.68908E-07  5097   0.124E-04    0.353E-05
 Linear response progress:
  Degree of freedom:  39/162
       N       E                     dE             d eps       ncg     rms          rms(c)
RMM:   1    -0.464374780298E-01   -0.46437E-01    0.42607E-02  5684   0.278E-01
RMM:   2    -0.436355721366E-01    0.28019E-02   -0.30110E-03  3643   0.792E-02    0.428E-02
RMM:   3    -0.436393056456E-01   -0.37335E-05   -0.15348E-04  3790   0.187E-02    0.247E-02
RMM:   4    -0.436447256702E-01   -0.54200E-05   -0.19606E-05  3940   0.570E-03    0.101E-02
RMM:   5    -0.436430713023E-01    0.16544E-05   -0.89863E-06  3937   0.307E-03    0.205E-03
RMM:   6    -0.436435503738E-01   -0.47907E-06   -0.67239E-06  4195   0.698E-04    0.117E-03
 Linear response progress:
  Degree of freedom:  40/162
       N       E                     dE             d eps       ncg     rms          rms(c)
RMM:   1    -0.449417462801E-01   -0.44942E-01    0.40075E-02  5515   0.274E-01
RMM:   2    -0.423986843886E-01    0.25431E-02   -0.28183E-03  3660   0.764E-02    0.401E-02
RMM:   3    -0.424715303985E-01   -0.72846E-04   -0.12692E-04  3821   0.182E-02    0.232E-02
RMM:   4    -0.425025089135E-01   -0.30979E-04    0.12666E-05  3980   0.540E-03    0.106E-02
RMM:   5    -0.425131319938E-01   -0.10623E-04    0.23078E-05  3940   0.339E-03    0.224E-03
RMM:   6    -0.425082442489E-01    0.48877E-05    0.56831E-05  4221   0.859E-04    0.127E-03
RMM:   7    -0.425062380808E-01    0.20062E-05    0.54803E-05  4321   0.407E-04    0.572E-04
RMM:   8    -0.425055058177E-01    0.73226E-06    0.54668E-05  4465   0.303E-04    0.122E-04
RMM:   9    -0.425054346071E-01    0.71211E-07    0.58929E-05  5368   0.163E-04    0.481E-05
RMM:  10    -0.425071679923E-01   -0.17334E-05    0.43607E-05  6055   0.143E-04    0.150E-05
RMM:  11    -0.425070148890E-01    0.15310E-06    0.44204E-05  6542   0.136E-04    0.606E-06
RMM:  12    -0.425070299902E-01   -0.15101E-07    0.47882E-05  6588   0.135E-04    0.249E-06
RMM:  13    -0.425066814690E-01    0.34852E-06    0.50317E-05  6644   0.134E-04    0.110E-06
 Linear response progress:
  Degree of freedom:  41/162
       N       E                     dE             d eps       ncg     rms          rms(c)
RMM:   1    -0.458531170215E-01   -0.45853E-01    0.37701E-02  5489   0.270E-01
RMM:   2    -0.443331132259E-01    0.15200E-02   -0.26430E-03  3691   0.727E-02    0.425E-02
RMM:   3    -0.444310795613E-01   -0.97966E-04   -0.12444E-04  3856   0.172E-02    0.240E-02
RMM:   4    -0.444947263252E-01   -0.63647E-04   -0.22882E-05  3935   0.625E-03    0.102E-02
RMM:   5    -0.445102097402E-01   -0.15483E-04   -0.45029E-06  3939   0.278E-03    0.353E-03
RMM:   6    -0.445036443777E-01    0.65654E-05   -0.72078E-07  4043   0.971E-04    0.141E-03
RMM:   7    -0.444925626312E-01    0.11082E-04   -0.74407E-07  4088   0.571E-04    0.345E-04
RMM:   8    -0.444912392052E-01    0.13234E-05   -0.66971E-07  4600   0.203E-04    0.135E-04
RMM:   9    -0.444920800484E-01   -0.84084E-06   -0.84103E-07  5092   0.124E-04    0.353E-05
 Linear response progress:
  Degree of freedom:  42/162
       N       E                     dE             d eps       ncg     rms          rms(c)
RMM:   1    -0.464374786196E-01   -0.46437E-01    0.42607E-02  5685   0.278E-01
RMM:   2    -0.436355619633E-01    0.28019E-02   -0.30111E-03  3643   0.792E-02    0.428E-02
RMM:   3    -0.436393182159E-01   -0.37563E-05   -0.15353E-04  3790   0.187E-02    0.247E-02
RMM:   4    -0.436447423730E-01   -0.54242E-05   -0.19680E-05  3942   0.570E-03    0.101E-02
RMM:   5    -0.436430826814E-01    0.16597E-05   -0.90167E-06  3937   0.307E-03    0.205E-03
RMM:   6    -0.436435598426E-01   -0.47716E-06   -0.67407E-06  4197   0.698E-04    0.117E-03
 Linear response progress:
  Degree of freedom:  43/162
       N       E                     dE             d eps       ncg     rms          rms(c)
RMM:   1    -0.449495237488E-01   -0.44950E-01    0.40002E-02  5527   0.274E-01
RMM:   2    -0.423985248667E-01    0.25510E-02   -0.28158E-03  3661   0.764E-02    0.401E-02
RMM:   3    -0.424715222227E-01   -0.72997E-04   -0.12695E-04  3825   0.182E-02    0.232E-02
RMM:   4    -0.425025021129E-01   -0.30980E-04    0.12659E-05  3978   0.540E-03    0.106E-02
RMM:   5    -0.425131296728E-01   -0.10628E-04    0.23063E-05  3941   0.339E-03    0.224E-03
RMM:   6    -0.425082405470E-01    0.48891E-05    0.56825E-05  4220   0.860E-04    0.127E-03
RMM:   7    -0.425062351820E-01    0.20054E-05    0.54795E-05  4323   0.407E-04    0.572E-04
RMM:   8    -0.425054750732E-01    0.76011E-06    0.54900E-05  4462   0.304E-04    0.122E-04
RMM:   9    -0.425058838536E-01   -0.40878E-06    0.54316E-05  5360   0.164E-04    0.481E-05
RMM:  10    -0.425068916780E-01   -0.10078E-05    0.45200E-05  6041   0.145E-04    0.150E-05
RMM:  11    -0.425067644066E-01    0.12727E-06    0.45311E-05  6545   0.137E-04    0.605E-06
RMM:  12    -0.425070679903E-01   -0.30358E-06    0.35916E-05  6602   0.136E-04    0.249E-06
RMM:  13    -0.425065650563E-01    0.50293E-06    0.40881E-05  6665   0.136E-04    0.109E-06
 Linear response progress:
  Degree of freedom:  44/162
       N       E                     dE             d eps       ncg     rms          rms(c)
RMM:   1    -0.458716173930E-01   -0.45872E-01    0.37515E-02  5481   0.270E-01
RMM:   2    -0.443330941501E-01    0.15385E-02   -0.26445E-03  3690   0.728E-02    0.425E-02
RMM:   3    -0.444310904642E-01   -0.97996E-04   -0.12464E-04  3856   0.172E-02    0.240E-02
RMM:   4    -0.444947239404E-01   -0.63633E-04   -0.22903E-05  3937   0.625E-03    0.102E-02
RMM:   5    -0.445102066008E-01   -0.15483E-04   -0.45271E-06  3939   0.278E-03    0.353E-03
RMM:   6    -0.445036438687E-01    0.65627E-05   -0.74559E-07  4042   0.971E-04    0.141E-03
RMM:   7    -0.444925643464E-01    0.11080E-04   -0.76959E-07  4090   0.571E-04    0.345E-04
RMM:   8    -0.444912394560E-01    0.13249E-05   -0.68637E-07  4599   0.204E-04    0.135E-04
RMM:   9    -0.444920782870E-01   -0.83883E-06   -0.12185E-06  5078   0.126E-04    0.353E-05
 Linear response progress:
  Degree of freedom:  45/162
       N       E                     dE             d eps       ncg     rms          rms(c)
RMM:   1    -0.464189855066E-01   -0.46419E-01    0.42799E-02  5713   0.278E-01
RMM:   2    -0.436357421293E-01    0.27832E-02   -0.30041E-03  3643   0.791E-02    0.428E-02
RMM:   3    -0.436393282878E-01   -0.35862E-05   -0.15331E-04  3790   0.186E-02    0.247E-02
RMM:   4    -0.436447467281E-01   -0.54184E-05   -0.19681E-05  3941   0.570E-03    0.101E-02
RMM:   5    -0.436430788720E-01    0.16679E-05   -0.90244E-06  3935   0.307E-03    0.205E-03
RMM:   6    -0.436435551207E-01   -0.47625E-06   -0.67516E-06  4199   0.698E-04    0.117E-03
 Linear response progress:
  Degree of freedom:  46/162
       N       E                     dE             d eps       ncg     rms          rms(c)
RMM:   1    -0.449495236569E-01   -0.44950E-01    0.40002E-02  5527   0.274E-01
RMM:   2    -0.423985517937E-01    0.25510E-02   -0.28161E-03  3661   0.764E-02    0.401E-02
RMM:   3    -0.424715265613E-01   -0.72975E-04   -0.12702E-04  3826   0.182E-02    0.232E-02
RMM:   4    -0.425025047536E-01   -0.30978E-04    0.12643E-05  3978   0.540E-03    0.106E-02
RMM:   5    -0.425131287556E-01   -0.10624E-04    0.23068E-05  3942   0.339E-03    0.224E-03
RMM:   6    -0.425082399427E-01    0.48888E-05    0.56830E-05  4222   0.859E-04    0.127E-03
RMM:   7    -0.425062322040E-01    0.20077E-05    0.54816E-05  4320   0.407E-04    0.572E-04
RMM:   8    -0.425055157748E-01    0.71643E-06    0.54562E-05  4464   0.303E-04    0.122E-04
RMM:   9    -0.425052672397E-01    0.24854E-06    0.60906E-05  5385   0.162E-04    0.481E-05
RMM:  10    -0.425072242514E-01   -0.19570E-05    0.40592E-05  6086   0.142E-04    0.150E-05
RMM:  11    -0.425070971776E-01    0.12707E-06    0.43025E-05  6628   0.134E-04    0.605E-06
RMM:  12    -0.425070589788E-01    0.38199E-07    0.42938E-05  6663   0.133E-04    0.249E-06
RMM:  13    -0.425067963328E-01    0.26265E-06    0.44634E-05  6706   0.133E-04    0.110E-06
 Linear response progress:
  Degree of freedom:  47/162
       N       E                     dE             d eps       ncg     rms          rms(c)
RMM:   1    -0.458716171931E-01   -0.45872E-01    0.37515E-02  5481   0.270E-01
RMM:   2    -0.443331055343E-01    0.15385E-02   -0.26433E-03  3690   0.728E-02    0.425E-02
RMM:   3    -0.444310605417E-01   -0.97955E-04   -0.12451E-04  3857   0.172E-02    0.240E-02
RMM:   4    -0.444947007891E-01   -0.63640E-04   -0.22884E-05  3935   0.625E-03    0.102E-02
RMM:   5    -0.445101835501E-01   -0.15483E-04   -0.45081E-06  3941   0.278E-03    0.353E-03
RMM:   6    -0.445036252111E-01    0.65583E-05   -0.73268E-07  4047   0.971E-04    0.141E-03
RMM:   7    -0.444925475027E-01    0.11078E-04   -0.75638E-07  4085   0.571E-04    0.345E-04
RMM:   8    -0.444912208380E-01    0.13267E-05   -0.69873E-07  4603   0.203E-04    0.135E-04
RMM:   9    -0.444920655507E-01   -0.84471E-06   -0.89404E-07  5111   0.123E-04    0.353E-05
 Linear response progress:
  Degree of freedom:  48/162
       N       E                     dE             d eps       ncg     rms          rms(c)
RMM:   1    -0.464189853622E-01   -0.46419E-01    0.42799E-02  5712   0.278E-01
RMM:   2    -0.436357472178E-01    0.27832E-02   -0.30044E-03  3643   0.791E-02    0.428E-02
RMM:   3    -0.436393334179E-01   -0.35862E-05   -0.15333E-04  3790   0.186E-02    0.247E-02
RMM:   4    -0.436447423772E-01   -0.54090E-05   -0.19618E-05  3941   0.570E-03    0.101E-02
RMM:   5    -0.436430743893E-01    0.16680E-05   -0.89954E-06  3935   0.307E-03    0.205E-03
RMM:   6    -0.436435517652E-01   -0.47738E-06   -0.67260E-06  4195   0.698E-04    0.117E-03
 Linear response progress:
  Degree of freedom:  49/162
       N       E                     dE             d eps       ncg     rms          rms(c)
RMM:   1    -0.449531144005E-01   -0.44953E-01    0.39960E-02  5523   0.274E-01
RMM:   2    -0.423986815725E-01    0.25544E-02   -0.28195E-03  3662   0.764E-02    0.401E-02
RMM:   3    -0.424715397836E-01   -0.72858E-04   -0.12698E-04  3824   0.182E-02    0.232E-02
RMM:   4    -0.425025161159E-01   -0.30976E-04    0.12669E-05  3979   0.540E-03    0.106E-02
RMM:   5    -0.425131368414E-01   -0.10621E-04    0.23084E-05  3941   0.339E-03    0.224E-03
RMM:   6    -0.425082482896E-01    0.48886E-05    0.56840E-05  4221   0.859E-04    0.127E-03
RMM:   7    -0.425062384757E-01    0.20098E-05    0.54836E-05  4322   0.407E-04    0.572E-04
RMM:   8    -0.425055493175E-01    0.68916E-06    0.54280E-05  4457   0.303E-04    0.122E-04
RMM:   9    -0.425051291463E-01    0.42017E-06    0.61352E-05  5379   0.162E-04    0.481E-05
RMM:  10    -0.425072257841E-01   -0.20966E-05    0.33214E-05  6066   0.143E-04    0.150E-05
RMM:  11    -0.425071321833E-01    0.93601E-07    0.25009E-05  6576   0.135E-04    0.606E-06
RMM:  12    -0.425069736754E-01    0.15851E-06    0.25325E-05  6623   0.134E-04    0.246E-06
RMM:  13    -0.425066938361E-01    0.27984E-06    0.27833E-05  6667   0.134E-04    0.111E-06
 Linear response progress:
  Degree of freedom:  50/162
       N       E                     dE             d eps       ncg     rms          rms(c)
RMM:   1    -0.458665374188E-01   -0.45867E-01    0.37565E-02  5481   0.270E-01
RMM:   2    -0.443331086432E-01    0.15334E-02   -0.26436E-03  3691   0.728E-02    0.425E-02
RMM:   3    -0.444310692077E-01   -0.97961E-04   -0.12442E-04  3853   0.172E-02    0.240E-02
RMM:   4    -0.444947137107E-01   -0.63645E-04   -0.22864E-05  3935   0.625E-03    0.102E-02
RMM:   5    -0.445101992295E-01   -0.15486E-04   -0.44885E-06  3941   0.278E-03    0.353E-03
RMM:   6    -0.445036368778E-01    0.65624E-05   -0.70939E-07  4043   0.971E-04    0.141E-03
RMM:   7    -0.444925575623E-01    0.11079E-04   -0.73148E-07  4087   0.571E-04    0.345E-04
RMM:   8    -0.444912310851E-01    0.13265E-05   -0.64953E-07  4599   0.203E-04    0.135E-04
RMM:   9    -0.444920804766E-01   -0.84939E-06   -0.55565E-07  5101   0.124E-04    0.353E-05
 Linear response progress:
  Degree of freedom:  51/162
       N       E                     dE             d eps       ncg     rms          rms(c)
RMM:   1    -0.464361247288E-01   -0.46436E-01    0.42621E-02  5703   0.277E-01
RMM:   2    -0.436357159401E-01    0.28004E-02   -0.30079E-03  3642   0.791E-02    0.428E-02
RMM:   3    -0.436393315886E-01   -0.36156E-05   -0.15345E-04  3787   0.187E-02    0.247E-02
RMM:   4    -0.436447406724E-01   -0.54091E-05   -0.19637E-05  3942   0.570E-03    0.101E-02
RMM:   5    -0.436430742484E-01    0.16664E-05   -0.89898E-06  3939   0.307E-03    0.205E-03
RMM:   6    -0.436435511131E-01   -0.47686E-06   -0.67177E-06  4197   0.698E-04    0.117E-03
 Linear response progress:
  Degree of freedom:  52/162
       N       E                     dE             d eps       ncg     rms          rms(c)
RMM:   1    -0.449531136656E-01   -0.44953E-01    0.39960E-02  5523   0.274E-01
RMM:   2    -0.423986737769E-01    0.25544E-02   -0.28194E-03  3662   0.764E-02    0.401E-02
RMM:   3    -0.424715355082E-01   -0.72862E-04   -0.12699E-04  3824   0.182E-02    0.232E-02
RMM:   4    -0.425025112000E-01   -0.30976E-04    0.12668E-05  3980   0.540E-03    0.106E-02
RMM:   5    -0.425131335802E-01   -0.10622E-04    0.23073E-05  3940   0.339E-03    0.224E-03
RMM:   6    -0.425082442068E-01    0.48894E-05    0.56832E-05  4219   0.859E-04    0.127E-03
RMM:   7    -0.425062370799E-01    0.20071E-05    0.54811E-05  4324   0.407E-04    0.572E-04
RMM:   8    -0.425054985757E-01    0.73850E-06    0.54752E-05  4458   0.303E-04    0.122E-04
RMM:   9    -0.425057211270E-01   -0.22255E-06    0.55400E-05  5369   0.163E-04    0.481E-05
RMM:  10    -0.425070582703E-01   -0.13371E-05    0.41519E-05  6055   0.144E-04    0.150E-05
RMM:  11    -0.425070235162E-01    0.34754E-07    0.36282E-05  6567   0.136E-04    0.606E-06
RMM:  12    -0.425071109519E-01   -0.87436E-07    0.30742E-05  6616   0.135E-04    0.247E-06
RMM:  13    -0.425065938794E-01    0.51707E-06    0.36186E-05  6670   0.135E-04    0.110E-06
 Linear response progress:
  Degree of freedom:  53/162
       N       E                     dE             d eps       ncg     rms          rms(c)
RMM:   1    -0.458665366449E-01   -0.45867E-01    0.37565E-02  5478   0.270E-01
RMM:   2    -0.443331654461E-01    0.15334E-02   -0.26428E-03  3689   0.728E-02    0.425E-02
RMM:   3    -0.444310753447E-01   -0.97910E-04   -0.12455E-04  3852   0.172E-02    0.240E-02
RMM:   4    -0.444947100926E-01   -0.63635E-04   -0.22910E-05  3934   0.625E-03    0.102E-02
RMM:   5    -0.445101983691E-01   -0.15488E-04   -0.45307E-06  3940   0.278E-03    0.353E-03
RMM:   6    -0.445036398482E-01    0.65585E-05   -0.75152E-07  4046   0.971E-04    0.141E-03
RMM:   7    -0.444925616686E-01    0.11078E-04   -0.77585E-07  4086   0.571E-04    0.345E-04
RMM:   8    -0.444912343941E-01    0.13273E-05   -0.68743E-07  4602   0.204E-04    0.135E-04
RMM:   9    -0.444920847115E-01   -0.85032E-06   -0.50260E-07  5084   0.126E-04    0.353E-05
 Linear response progress:
  Degree of freedom:  54/162
       N       E                     dE             d eps       ncg     rms          rms(c)
RMM:   1    -0.464361238604E-01   -0.46436E-01    0.42621E-02  5702   0.277E-01
RMM:   2    -0.436357212679E-01    0.28004E-02   -0.30076E-03  3642   0.791E-02    0.428E-02
RMM:   3    -0.436393161472E-01   -0.35949E-05   -0.15340E-04  3787   0.187E-02    0.247E-02
RMM:   4    -0.436447313277E-01   -0.54152E-05   -0.19645E-05  3941   0.570E-03    0.101E-02
RMM:   5    -0.436430709893E-01    0.16603E-05   -0.90081E-06  3936   0.307E-03    0.205E-03
RMM:   6    -0.436435489920E-01   -0.47800E-06   -0.67435E-06  4198   0.698E-04    0.117E-03
 Linear response progress:
  Degree of freedom:  55/162
       N       E                     dE             d eps       ncg     rms          rms(c)
RMM:   1    -0.454644619505E-01   -0.45464E-01    0.35708E-02  5468   0.276E-01
RMM:   2    -0.433917167317E-01    0.20727E-02   -0.27631E-03  3647   0.756E-02    0.439E-02
RMM:   3    -0.434521805346E-01   -0.60464E-04   -0.13506E-04  3821   0.180E-02    0.252E-02
RMM:   4    -0.434913442488E-01   -0.39164E-04   -0.16298E-05  3925   0.570E-03    0.135E-02
RMM:   5    -0.435065886843E-01   -0.15244E-04   -0.73105E-06  3936   0.354E-03    0.442E-03
RMM:   6    -0.435040737152E-01    0.25150E-05   -0.34932E-06  4034   0.135E-03    0.156E-03
RMM:   7    -0.434952670248E-01    0.88067E-05   -0.51423E-06  4213   0.599E-04    0.467E-04
RMM:   8    -0.434930636338E-01    0.22034E-05   -0.54365E-06  4571   0.274E-04    0.150E-04
RMM:   9    -0.434936589759E-01   -0.59534E-06   -0.44566E-06  5145   0.158E-04    0.449E-05
 Linear response progress:
  Degree of freedom:  56/162
       N       E                     dE             d eps       ncg     rms          rms(c)
RMM:   1    -0.457748472651E-01   -0.45775E-01    0.38009E-02  5480   0.277E-01
RMM:   2    -0.433032016983E-01    0.24716E-02   -0.27839E-03  3653   0.775E-02    0.415E-02
RMM:   3    -0.433566729716E-01   -0.53471E-04   -0.14672E-04  3838   0.184E-02    0.238E-02
RMM:   4    -0.433901819089E-01   -0.33509E-04   -0.88208E-06  3955   0.560E-03    0.112E-02
RMM:   5    -0.433990280662E-01   -0.88462E-05    0.44451E-06  3963   0.298E-03    0.419E-03
RMM:   6    -0.433982012553E-01    0.82681E-06    0.12525E-05  4051   0.125E-03    0.146E-03
RMM:   7    -0.433937242180E-01    0.44770E-05    0.17111E-05  4282   0.513E-04    0.545E-04
RMM:   8    -0.433923681451E-01    0.13561E-05    0.16698E-05  4483   0.295E-04    0.133E-04
RMM:   9    -0.433926077062E-01   -0.23956E-06    0.18957E-05  5377   0.163E-04    0.495E-05
RMM:  10    -0.433924758969E-01    0.13181E-06    0.22387E-05  5981   0.142E-04    0.166E-05
RMM:  11    -0.433931154952E-01   -0.63960E-06    0.18722E-05  6474   0.134E-04    0.958E-06
RMM:  12    -0.433930764190E-01    0.39076E-07    0.25844E-05  6497   0.134E-04    0.403E-06
RMM:  13    -0.433929433611E-01    0.13306E-06    0.24077E-05  6555   0.133E-04    0.119E-06
 Linear response progress:
  Degree of freedom:  57/162
       N       E                     dE             d eps       ncg     rms          rms(c)
RMM:   1    -0.463837399868E-01   -0.46384E-01    0.42717E-02  5701   0.280E-01
RMM:   2    -0.435383799974E-01    0.28454E-02   -0.30165E-03  3625   0.797E-02    0.435E-02
RMM:   3    -0.435424865956E-01   -0.41066E-05   -0.16693E-04  3805   0.192E-02    0.252E-02
RMM:   4    -0.435581978842E-01   -0.15711E-04   -0.15375E-05  3944   0.541E-03    0.130E-02
RMM:   5    -0.435597588694E-01   -0.15610E-05   -0.68998E-06  3947   0.313E-03    0.518E-03
RMM:   6    -0.435595694694E-01    0.18940E-06   -0.22233E-06  3938   0.153E-03    0.142E-03
 Linear response progress:
  Degree of freedom:  58/162
       N       E                     dE             d eps       ncg     rms          rms(c)
RMM:   1    -0.454644619325E-01   -0.45464E-01    0.35708E-02  5470   0.276E-01
RMM:   2    -0.433917072240E-01    0.20728E-02   -0.27634E-03  3651   0.756E-02    0.439E-02
RMM:   3    -0.434521913590E-01   -0.60484E-04   -0.13513E-04  3821   0.180E-02    0.252E-02
RMM:   4    -0.434913453677E-01   -0.39154E-04   -0.16273E-05  3925   0.570E-03    0.135E-02
RMM:   5    -0.435065888552E-01   -0.15243E-04   -0.72944E-06  3936   0.353E-03    0.442E-03
RMM:   6    -0.435040736149E-01    0.25152E-05   -0.34855E-06  4034   0.135E-03    0.156E-03
RMM:   7    -0.434952653873E-01    0.88082E-05   -0.51269E-06  4213   0.599E-04    0.467E-04
RMM:   8    -0.434930647733E-01    0.22006E-05   -0.54394E-06  4569   0.274E-04    0.150E-04
RMM:   9    -0.434936664867E-01   -0.60171E-06   -0.58449E-06  5149   0.157E-04    0.448E-05
 Linear response progress:
  Degree of freedom:  59/162
       N       E                     dE             d eps       ncg     rms          rms(c)
RMM:   1    -0.457748474230E-01   -0.45775E-01    0.38009E-02  5480   0.277E-01
RMM:   2    -0.433031245830E-01    0.24717E-02   -0.27853E-03  3655   0.775E-02    0.415E-02
RMM:   3    -0.433566734618E-01   -0.53549E-04   -0.14664E-04  3839   0.184E-02    0.238E-02
RMM:   4    -0.433901804534E-01   -0.33507E-04   -0.87154E-06  3956   0.560E-03    0.112E-02
RMM:   5    -0.433990208187E-01   -0.88404E-05    0.45463E-06  3962   0.298E-03    0.419E-03
RMM:   6    -0.433981901639E-01    0.83065E-06    0.12641E-05  4052   0.125E-03    0.146E-03
RMM:   7    -0.433937117435E-01    0.44784E-05    0.17223E-05  4284   0.513E-04    0.545E-04
RMM:   8    -0.433923593658E-01    0.13524E-05    0.16606E-05  4484   0.295E-04    0.133E-04
RMM:   9    -0.433925308077E-01   -0.17144E-06    0.18796E-05  5392   0.162E-04    0.496E-05
RMM:  10    -0.433924536569E-01    0.77151E-07    0.21630E-05  6010   0.140E-04    0.166E-05
RMM:  11    -0.433932421538E-01   -0.78850E-06    0.97800E-06  6537   0.132E-04    0.959E-06
 Linear response progress:
  Degree of freedom:  60/162
       N       E                     dE             d eps       ncg     rms          rms(c)
RMM:   1    -0.463837399909E-01   -0.46384E-01    0.42717E-02  5701   0.280E-01
RMM:   2    -0.435384077657E-01    0.28453E-02   -0.30177E-03  3628   0.797E-02    0.435E-02
RMM:   3    -0.435425119314E-01   -0.41042E-05   -0.16708E-04  3809   0.192E-02    0.252E-02
RMM:   4    -0.435582070841E-01   -0.15695E-04   -0.15382E-05  3946   0.541E-03    0.130E-02
RMM:   5    -0.435597631571E-01   -0.15561E-05   -0.69001E-06  3950   0.313E-03    0.518E-03
RMM:   6    -0.435595703208E-01    0.19284E-06   -0.22114E-06  3939   0.153E-03    0.142E-03
 Linear response progress:
  Degree of freedom:  61/162
       N       E                     dE             d eps       ncg     rms          rms(c)
RMM:   1    -0.454478131540E-01   -0.45448E-01    0.35878E-02  5476   0.276E-01
RMM:   2    -0.433916413284E-01    0.20562E-02   -0.27594E-03  3650   0.755E-02    0.439E-02
RMM:   3    -0.434521745751E-01   -0.60533E-04   -0.13510E-04  3819   0.180E-02    0.252E-02
RMM:   4    -0.434913328273E-01   -0.39158E-04   -0.16262E-05  3926   0.570E-03    0.135E-02
RMM:   5    -0.435065791128E-01   -0.15246E-04   -0.72905E-06  3935   0.353E-03    0.442E-03
RMM:   6    -0.435040648578E-01    0.25143E-05   -0.34858E-06  4034   0.135E-03    0.156E-03
RMM:   7    -0.434952562662E-01    0.88086E-05   -0.51303E-06  4212   0.599E-04    0.467E-04
RMM:   8    -0.434930561762E-01    0.22001E-05   -0.54541E-06  4570   0.274E-04    0.150E-04
RMM:   9    -0.434936559398E-01   -0.59976E-06   -0.52677E-06  5149   0.157E-04    0.449E-05
 Linear response progress:
  Degree of freedom:  62/162
       N       E                     dE             d eps       ncg     rms          rms(c)
RMM:   1    -0.457904776779E-01   -0.45790E-01    0.37851E-02  5474   0.277E-01
RMM:   2    -0.433029592750E-01    0.24875E-02   -0.27905E-03  3657   0.776E-02    0.415E-02
RMM:   3    -0.433566477079E-01   -0.53688E-04   -0.14681E-04  3840   0.184E-02    0.238E-02
RMM:   4    -0.433901678534E-01   -0.33520E-04   -0.87268E-06  3961   0.560E-03    0.112E-02
RMM:   5    -0.433990138630E-01   -0.88460E-05    0.45348E-06  3962   0.298E-03    0.419E-03
RMM:   6    -0.433981838099E-01    0.83005E-06    0.12641E-05  4054   0.125E-03    0.146E-03
RMM:   7    -0.433937041472E-01    0.44797E-05    0.17237E-05  4284   0.513E-04    0.545E-04
RMM:   8    -0.433923544116E-01    0.13497E-05    0.16585E-05  4484   0.295E-04    0.133E-04
RMM:   9    -0.433924945653E-01   -0.14015E-06    0.19502E-05  5374   0.163E-04    0.496E-05
RMM:  10    -0.433933388056E-01   -0.84424E-06    0.13443E-05  5981   0.142E-04    0.166E-05
RMM:  11    -0.433931267528E-01    0.21205E-06    0.13684E-05  6458   0.134E-04    0.959E-06
RMM:  12    -0.433930669449E-01    0.59808E-07    0.22373E-05  6480   0.134E-04    0.403E-06
RMM:  13    -0.433928713214E-01    0.19562E-06    0.23728E-05  6536   0.133E-04    0.120E-06
 Linear response progress:
  Degree of freedom:  63/162
       N       E                     dE             d eps       ncg     rms          rms(c)
RMM:   1    -0.463839652443E-01   -0.46384E-01    0.42712E-02  5700   0.280E-01
RMM:   2    -0.435383168167E-01    0.28456E-02   -0.30172E-03  3626   0.797E-02    0.435E-02
RMM:   3    -0.435425011817E-01   -0.41844E-05   -0.16699E-04  3807   0.192E-02    0.252E-02
RMM:   4    -0.435582008925E-01   -0.15700E-04   -0.15385E-05  3944   0.541E-03    0.130E-02
RMM:   5    -0.435597568107E-01   -0.15559E-05   -0.68965E-06  3950   0.313E-03    0.518E-03
RMM:   6    -0.435595630238E-01    0.19379E-06   -0.21966E-06  3940   0.153E-03    0.142E-03
 Linear response progress:
  Degree of freedom:  64/162
       N       E                     dE             d eps       ncg     rms          rms(c)
RMM:   1    -0.454478129453E-01   -0.45448E-01    0.35878E-02  5474   0.276E-01
RMM:   2    -0.433916583238E-01    0.20562E-02   -0.27590E-03  3646   0.755E-02    0.439E-02
RMM:   3    -0.434521690560E-01   -0.60511E-04   -0.13508E-04  3818   0.180E-02    0.252E-02
RMM:   4    -0.434913320946E-01   -0.39163E-04   -0.16313E-05  3926   0.570E-03    0.135E-02
RMM:   5    -0.435065750771E-01   -0.15243E-04   -0.73068E-06  3937   0.353E-03    0.442E-03
RMM:   6    -0.435040600980E-01    0.25150E-05   -0.34909E-06  4031   0.135E-03    0.156E-03
RMM:   7    -0.434952520955E-01    0.88080E-05   -0.51329E-06  4214   0.599E-04    0.467E-04
RMM:   8    -0.434930488549E-01    0.22032E-05   -0.54277E-06  4570   0.274E-04    0.150E-04
RMM:   9    -0.434936461434E-01   -0.59729E-06   -0.50994E-06  5152   0.157E-04    0.449E-05
 Linear response progress:
  Degree of freedom:  65/162
       N       E                     dE             d eps       ncg     rms          rms(c)
RMM:   1    -0.457904773553E-01   -0.45790E-01    0.37851E-02  5472   0.277E-01
RMM:   2    -0.433030176818E-01    0.24875E-02   -0.27900E-03  3655   0.776E-02    0.415E-02
RMM:   3    -0.433566455039E-01   -0.53628E-04   -0.14681E-04  3841   0.184E-02    0.238E-02
RMM:   4    -0.433901604664E-01   -0.33515E-04   -0.87768E-06  3960   0.560E-03    0.112E-02
RMM:   5    -0.433990072955E-01   -0.88468E-05    0.44864E-06  3961   0.298E-03    0.419E-03
RMM:   6    -0.433981826768E-01    0.82462E-06    0.12553E-05  4055   0.125E-03    0.146E-03
RMM:   7    -0.433937055489E-01    0.44771E-05    0.17140E-05  4286   0.513E-04    0.545E-04
RMM:   8    -0.433923521382E-01    0.13534E-05    0.16557E-05  4483   0.295E-04    0.133E-04
RMM:   9    -0.433925791257E-01   -0.22699E-06    0.18200E-05  5375   0.163E-04    0.496E-05
RMM:  10    -0.433924308572E-01    0.14827E-06    0.21764E-05  5981   0.141E-04    0.166E-05
RMM:  11    -0.433930572844E-01   -0.62643E-06    0.13503E-05  6480   0.133E-04    0.958E-06
RMM:  12    -0.433931021965E-01   -0.44912E-07    0.20663E-05  6499   0.133E-04    0.401E-06
RMM:  13    -0.433929175342E-01    0.18466E-06    0.22221E-05  6557   0.132E-04    0.120E-06
 Linear response progress:
  Degree of freedom:  66/162
       N       E                     dE             d eps       ncg     rms          rms(c)
RMM:   1    -0.463839649446E-01   -0.46384E-01    0.42712E-02  5700   0.280E-01
RMM:   2    -0.435382961719E-01    0.28457E-02   -0.30162E-03  3626   0.797E-02    0.435E-02
RMM:   3    -0.435424745408E-01   -0.41784E-05   -0.16682E-04  3805   0.192E-02    0.252E-02
RMM:   4    -0.435581876599E-01   -0.15713E-04   -0.15318E-05  3944   0.541E-03    0.130E-02
RMM:   5    -0.435597492847E-01   -0.15616E-05   -0.68613E-06  3947   0.313E-03    0.518E-03
RMM:   6    -0.435595598875E-01    0.18940E-06   -0.21883E-06  3941   0.153E-03    0.142E-03
 Linear response progress:
  Degree of freedom:  67/162
       N       E                     dE             d eps       ncg     rms          rms(c)
RMM:   1    -0.454461388128E-01   -0.45446E-01    0.35894E-02  5468   0.276E-01
RMM:   2    -0.433916319042E-01    0.20545E-02   -0.27584E-03  3649   0.755E-02    0.439E-02
RMM:   3    -0.434521895106E-01   -0.60558E-04   -0.13505E-04  3818   0.180E-02    0.252E-02
RMM:   4    -0.434913447936E-01   -0.39155E-04   -0.16302E-05  3924   0.570E-03    0.135E-02
RMM:   5    -0.435065855522E-01   -0.15241E-04   -0.73117E-06  3935   0.354E-03    0.442E-03
RMM:   6    -0.435040668906E-01    0.25187E-05   -0.34940E-06  4035   0.135E-03    0.156E-03
RMM:   7    -0.434952581716E-01    0.88087E-05   -0.51366E-06  4214   0.599E-04    0.467E-04
RMM:   8    -0.434930593054E-01    0.21989E-05   -0.54492E-06  4577   0.274E-04    0.150E-04
RMM:   9    -0.434936692874E-01   -0.60998E-06   -0.50162E-06  5153   0.157E-04    0.449E-05
 Linear response progress:
  Degree of freedom:  68/162
       N       E                     dE             d eps       ncg     rms          rms(c)
RMM:   1    -0.457572788666E-01   -0.45757E-01    0.38188E-02  5462   0.277E-01
RMM:   2    -0.433031579556E-01    0.24541E-02   -0.27881E-03  3653   0.776E-02    0.415E-02
RMM:   3    -0.433566576813E-01   -0.53500E-04   -0.14673E-04  3845   0.184E-02    0.238E-02
RMM:   4    -0.433901666082E-01   -0.33509E-04   -0.87206E-06  3958   0.560E-03    0.112E-02
RMM:   5    -0.433990090947E-01   -0.88425E-05    0.45457E-06  3962   0.298E-03    0.419E-03
RMM:   6    -0.433981806642E-01    0.82843E-06    0.12620E-05  4054   0.125E-03    0.146E-03
RMM:   7    -0.433937028425E-01    0.44778E-05    0.17205E-05  4283   0.513E-04    0.545E-04
RMM:   8    -0.433923507139E-01    0.13521E-05    0.16612E-05  4480   0.295E-04    0.133E-04
RMM:   9    -0.433924864050E-01   -0.13569E-06    0.18679E-05  5378   0.163E-04    0.495E-05
RMM:  10    -0.433932809079E-01   -0.79450E-06    0.13013E-05  5982   0.141E-04    0.166E-05
RMM:  11    -0.433932323141E-01    0.48594E-07    0.84684E-06  6490   0.133E-04    0.959E-06
 Linear response progress:
  Degree of freedom:  69/162
       N       E                     dE             d eps       ncg     rms          rms(c)
RMM:   1    -0.463674078058E-01   -0.46367E-01    0.42885E-02  5703   0.279E-01
RMM:   2    -0.435384807248E-01    0.28289E-02   -0.30144E-03  3626   0.797E-02    0.435E-02
RMM:   3    -0.435425007642E-01   -0.40200E-05   -0.16688E-04  3807   0.192E-02    0.252E-02
RMM:   4    -0.435582000099E-01   -0.15699E-04   -0.15347E-05  3946   0.541E-03    0.130E-02
RMM:   5    -0.435597569233E-01   -0.15569E-05   -0.68783E-06  3952   0.313E-03    0.518E-03
RMM:   6    -0.435595646641E-01    0.19226E-06   -0.22055E-06  3940   0.153E-03    0.142E-03
 Linear response progress:
  Degree of freedom:  70/162
       N       E                     dE             d eps       ncg     rms          rms(c)
RMM:   1    -0.454461388348E-01   -0.45446E-01    0.35894E-02  5468   0.276E-01
RMM:   2    -0.433916220549E-01    0.20545E-02   -0.27586E-03  3646   0.755E-02    0.439E-02
RMM:   3    -0.434521845379E-01   -0.60562E-04   -0.13500E-04  3819   0.180E-02    0.252E-02
RMM:   4    -0.434913452790E-01   -0.39161E-04   -0.16279E-05  3924   0.570E-03    0.135E-02
RMM:   5    -0.435065904652E-01   -0.15245E-04   -0.73141E-06  3935   0.354E-03    0.442E-03
RMM:   6    -0.435040723810E-01    0.25181E-05   -0.34988E-06  4033   0.135E-03    0.156E-03
RMM:   7    -0.434952642133E-01    0.88082E-05   -0.51486E-06  4214   0.599E-04    0.467E-04
RMM:   8    -0.434930647466E-01    0.21995E-05   -0.54698E-06  4574   0.274E-04    0.150E-04
RMM:   9    -0.434936670621E-01   -0.60232E-06   -0.46427E-06  5139   0.158E-04    0.449E-05
 Linear response progress:
  Degree of freedom:  71/162
       N       E                     dE             d eps       ncg     rms          rms(c)
RMM:   1    -0.457572788223E-01   -0.45757E-01    0.38188E-02  5462   0.277E-01
RMM:   2    -0.433031756686E-01    0.24541E-02   -0.27873E-03  3653   0.776E-02    0.415E-02
RMM:   3    -0.433566616616E-01   -0.53486E-04   -0.14680E-04  3843   0.184E-02    0.238E-02
RMM:   4    -0.433901793586E-01   -0.33518E-04   -0.87852E-06  3957   0.560E-03    0.112E-02
RMM:   5    -0.433990267423E-01   -0.88474E-05    0.44863E-06  3961   0.298E-03    0.419E-03
RMM:   6    -0.433981975246E-01    0.82922E-06    0.12587E-05  4053   0.125E-03    0.146E-03
RMM:   7    -0.433937174124E-01    0.44801E-05    0.17183E-05  4283   0.513E-04    0.545E-04
RMM:   8    -0.433923616709E-01    0.13557E-05    0.16673E-05  4483   0.295E-04    0.133E-04
RMM:   9    -0.433925669703E-01   -0.20530E-06    0.18889E-05  5382   0.163E-04    0.495E-05
RMM:  10    -0.433924112646E-01    0.15571E-06    0.22313E-05  5969   0.142E-04    0.167E-05
RMM:  11    -0.433931188162E-01   -0.70755E-06    0.84229E-06  6459   0.134E-04    0.960E-06
 Linear response progress:
  Degree of freedom:  72/162
       N       E                     dE             d eps       ncg     rms          rms(c)
RMM:   1    -0.463674076455E-01   -0.46367E-01    0.42885E-02  5703   0.279E-01
RMM:   2    -0.435384724686E-01    0.28289E-02   -0.30142E-03  3625   0.797E-02    0.435E-02
RMM:   3    -0.435425006353E-01   -0.40282E-05   -0.16688E-04  3805   0.192E-02    0.252E-02
RMM:   4    -0.435582024205E-01   -0.15702E-04   -0.15385E-05  3943   0.541E-03    0.130E-02
RMM:   5    -0.435597577384E-01   -0.15553E-05   -0.68913E-06  3947   0.313E-03    0.518E-03
RMM:   6    -0.435595650841E-01    0.19265E-06   -0.22049E-06  3939   0.153E-03    0.142E-03
 Linear response progress:
  Degree of freedom:  73/162
       N       E                     dE             d eps       ncg     rms          rms(c)
RMM:   1    -0.454542389734E-01   -0.45454E-01    0.35811E-02  5472   0.276E-01
RMM:   2    -0.433914663090E-01    0.20628E-02   -0.27630E-03  3649   0.756E-02    0.439E-02
RMM:   3    -0.434521397462E-01   -0.60673E-04   -0.13518E-04  3819   0.180E-02    0.252E-02
RMM:   4    -0.434912996739E-01   -0.39160E-04   -0.16255E-05  3925   0.570E-03    0.135E-02
RMM:   5    -0.435065479549E-01   -0.15248E-04   -0.72930E-06  3935   0.354E-03    0.442E-03
RMM:   6    -0.435040317788E-01    0.25162E-05   -0.34769E-06  4034   0.135E-03    0.156E-03
RMM:   7    -0.434952252082E-01    0.88066E-05   -0.51296E-06  4209   0.599E-04    0.467E-04
RMM:   8    -0.434930217169E-01    0.22035E-05   -0.53654E-06  4569   0.274E-04    0.150E-04
RMM:   9    -0.434936270169E-01   -0.60530E-06   -0.50169E-06  5159   0.157E-04    0.449E-05
 Linear response progress:
  Degree of freedom:  74/162
       N       E                     dE             d eps       ncg     rms          rms(c)
RMM:   1    -0.457866422864E-01   -0.45787E-01    0.37893E-02  5472   0.277E-01
RMM:   2    -0.433029944279E-01    0.24836E-02   -0.27902E-03  3654   0.776E-02    0.415E-02
RMM:   3    -0.433566197686E-01   -0.53625E-04   -0.14687E-04  3840   0.184E-02    0.238E-02
RMM:   4    -0.433901316290E-01   -0.33512E-04   -0.87776E-06  3958   0.560E-03    0.112E-02
RMM:   5    -0.433989760993E-01   -0.88445E-05    0.44931E-06  3962   0.298E-03    0.419E-03
RMM:   6    -0.433981466523E-01    0.82945E-06    0.12599E-05  4051   0.125E-03    0.146E-03
RMM:   7    -0.433936695962E-01    0.44771E-05    0.17191E-05  4286   0.512E-04    0.545E-04
RMM:   8    -0.433923142752E-01    0.13553E-05    0.16578E-05  4481   0.295E-04    0.133E-04
RMM:   9    -0.433925343412E-01   -0.22007E-06    0.17889E-05  5394   0.162E-04    0.496E-05
RMM:  10    -0.433922251202E-01    0.30922E-06    0.22320E-05  6026   0.140E-04    0.166E-05
RMM:  11    -0.433930687935E-01   -0.84367E-06    0.17813E-05  6578   0.131E-04    0.959E-06
RMM:  12    -0.433930299285E-01    0.38865E-07    0.23626E-05  6593   0.131E-04    0.401E-06
RMM:  13    -0.433928920156E-01    0.13791E-06    0.23021E-05  6623   0.131E-04    0.120E-06
 Linear response progress:
  Degree of freedom:  75/162
       N       E                     dE             d eps       ncg     rms          rms(c)
RMM:   1    -0.463922076452E-01   -0.46392E-01    0.42624E-02  5707   0.280E-01
RMM:   2    -0.435383463664E-01    0.28539E-02   -0.30184E-03  3627   0.797E-02    0.435E-02
RMM:   3    -0.435424778797E-01   -0.41315E-05   -0.16720E-04  3809   0.192E-02    0.252E-02
RMM:   4    -0.435581731138E-01   -0.15695E-04   -0.15450E-05  3946   0.541E-03    0.130E-02
RMM:   5    -0.435597345930E-01   -0.15615E-05   -0.69550E-06  3949   0.313E-03    0.518E-03
RMM:   6    -0.435595416433E-01    0.19295E-06   -0.22502E-06  3941   0.153E-03    0.142E-03
 Linear response progress:
  Degree of freedom:  76/162
       N       E                     dE             d eps       ncg     rms          rms(c)
RMM:   1    -0.454542387067E-01   -0.45454E-01    0.35811E-02  5470   0.276E-01
RMM:   2    -0.433914770159E-01    0.20628E-02   -0.27625E-03  3647   0.756E-02    0.439E-02
RMM:   3    -0.434521332194E-01   -0.60656E-04   -0.13511E-04  3818   0.180E-02    0.252E-02
RMM:   4    -0.434913059556E-01   -0.39173E-04   -0.16320E-05  3925   0.570E-03    0.135E-02
RMM:   5    -0.435065500828E-01   -0.15244E-04   -0.72983E-06  3935   0.354E-03    0.442E-03
RMM:   6    -0.435040352509E-01    0.25148E-05   -0.34910E-06  4034   0.135E-03    0.156E-03
RMM:   7    -0.434952294491E-01    0.88058E-05   -0.51423E-06  4211   0.599E-04    0.467E-04
RMM:   8    -0.434930255685E-01    0.22039E-05   -0.53724E-06  4565   0.274E-04    0.150E-04
RMM:   9    -0.434936278313E-01   -0.60226E-06   -0.40579E-06  5149   0.158E-04    0.449E-05
 Linear response progress:
  Degree of freedom:  77/162
       N       E                     dE             d eps       ncg     rms          rms(c)
RMM:   1    -0.457866423761E-01   -0.45787E-01    0.37893E-02  5472   0.277E-01
RMM:   2    -0.433030489654E-01    0.24836E-02   -0.27897E-03  3652   0.776E-02    0.415E-02
RMM:   3    -0.433566097525E-01   -0.53561E-04   -0.14681E-04  3840   0.184E-02    0.238E-02
RMM:   4    -0.433901142229E-01   -0.33504E-04   -0.87424E-06  3957   0.560E-03    0.112E-02
RMM:   5    -0.433989607895E-01   -0.88466E-05    0.45230E-06  3961   0.298E-03    0.419E-03
RMM:   6    -0.433981357525E-01    0.82504E-06    0.12592E-05  4052   0.125E-03    0.146E-03
RMM:   7    -0.433936620181E-01    0.44737E-05    0.17167E-05  4285   0.513E-04    0.545E-04
RMM:   8    -0.433923092031E-01    0.13528E-05    0.16591E-05  4484   0.295E-04    0.133E-04
RMM:   9    -0.433924792174E-01   -0.17001E-06    0.18522E-05  5381   0.163E-04    0.496E-05
RMM:  10    -0.433926433568E-01   -0.16414E-06    0.18781E-05  5997   0.141E-04    0.166E-05
RMM:  11    -0.433931443324E-01   -0.50098E-06    0.18413E-05  6503   0.133E-04    0.958E-06
RMM:  12    -0.433929924767E-01    0.15186E-06    0.26492E-05  6515   0.133E-04    0.401E-06
RMM:  13    -0.433928374780E-01    0.15500E-06    0.26641E-05  6555   0.132E-04    0.119E-06
 Linear response progress:
  Degree of freedom:  78/162
       N       E                     dE             d eps       ncg     rms          rms(c)
RMM:   1    -0.463922078097E-01   -0.46392E-01    0.42624E-02  5707   0.280E-01
RMM:   2    -0.435383172148E-01    0.28539E-02   -0.30174E-03  3627   0.797E-02    0.435E-02
RMM:   3    -0.435424437904E-01   -0.41266E-05   -0.16697E-04  3808   0.192E-02    0.252E-02
RMM:   4    -0.435581521760E-01   -0.15708E-04   -0.15320E-05  3946   0.541E-03    0.130E-02
RMM:   5    -0.435597184071E-01   -0.15662E-05   -0.68568E-06  3944   0.313E-03    0.518E-03
RMM:   6    -0.435595301089E-01    0.18830E-06   -0.21844E-06  3942   0.153E-03    0.142E-03
 Linear response progress:
  Degree of freedom:  79/162
       N       E                     dE             d eps       ncg     rms          rms(c)
RMM:   1    -0.454532443674E-01   -0.45453E-01    0.35822E-02  5455   0.276E-01
RMM:   2    -0.433915828836E-01    0.20617E-02   -0.27651E-03  3648   0.756E-02    0.439E-02
RMM:   3    -0.434521332970E-01   -0.60550E-04   -0.13519E-04  3821   0.180E-02    0.252E-02
RMM:   4    -0.434912940220E-01   -0.39161E-04   -0.16313E-05  3926   0.570E-03    0.135E-02
RMM:   5    -0.435065390180E-01   -0.15245E-04   -0.73281E-06  3935   0.354E-03    0.442E-03
RMM:   6    -0.435040243141E-01    0.25147E-05   -0.35092E-06  4035   0.135E-03    0.156E-03
RMM:   7    -0.434952170423E-01    0.88073E-05   -0.51525E-06  4214   0.599E-04    0.467E-04
RMM:   8    -0.434930179177E-01    0.21991E-05   -0.54563E-06  4573   0.274E-04    0.150E-04
RMM:   9    -0.434936123928E-01   -0.59448E-06   -0.50476E-06  5143   0.157E-04    0.448E-05
 Linear response progress:
  Degree of freedom:  80/162
       N       E                     dE             d eps       ncg     rms          rms(c)
RMM:   1    -0.457680490417E-01   -0.45768E-01    0.38080E-02  5462   0.278E-01
RMM:   2    -0.433031072302E-01    0.24649E-02   -0.27875E-03  3655   0.776E-02    0.415E-02
RMM:   3    -0.433565933495E-01   -0.53486E-04   -0.14674E-04  3844   0.184E-02    0.238E-02
RMM:   4    -0.433901060197E-01   -0.33513E-04   -0.87565E-06  3958   0.560E-03    0.112E-02
RMM:   5    -0.433989560423E-01   -0.88500E-05    0.45162E-06  3962   0.298E-03    0.419E-03
RMM:   6    -0.433981297845E-01    0.82626E-06    0.12592E-05  4057   0.125E-03    0.146E-03
RMM:   7    -0.433936536843E-01    0.44761E-05    0.17162E-05  4285   0.513E-04    0.545E-04
RMM:   8    -0.433922972529E-01    0.13564E-05    0.16501E-05  4483   0.295E-04    0.133E-04
RMM:   9    -0.433924229455E-01   -0.12569E-06    0.19279E-05  5380   0.162E-04    0.495E-05
RMM:  10    -0.433926808155E-01   -0.25787E-06    0.18120E-05  5998   0.141E-04    0.166E-05
RMM:  11    -0.433930485518E-01   -0.36774E-06    0.15786E-05  6491   0.133E-04    0.957E-06
RMM:  12    -0.433930577590E-01   -0.92072E-08    0.22691E-05  6504   0.133E-04    0.402E-06
RMM:  13    -0.433928768564E-01    0.18090E-06    0.21938E-05  6541   0.132E-04    0.118E-06
 Linear response progress:
  Degree of freedom:  81/162
       N       E                     dE             d eps       ncg     rms          rms(c)
RMM:   1    -0.463944030240E-01   -0.46394E-01    0.42608E-02  5702   0.280E-01
RMM:   2    -0.435382374585E-01    0.28562E-02   -0.30157E-03  3625   0.797E-02    0.435E-02
RMM:   3    -0.435424626527E-01   -0.42252E-05   -0.16688E-04  3809   0.192E-02    0.252E-02
RMM:   4    -0.435581608307E-01   -0.15698E-04   -0.15317E-05  3944   0.541E-03    0.130E-02
RMM:   5    -0.435597204244E-01   -0.15596E-05   -0.68516E-06  3950   0.313E-03    0.518E-03
RMM:   6    -0.435595282846E-01    0.19214E-06   -0.21817E-06  3940   0.153E-03    0.142E-03
 Linear response progress:
  Degree of freedom:  82/162
       N       E                     dE             d eps       ncg     rms          rms(c)
RMM:   1    -0.454532449684E-01   -0.45453E-01    0.35822E-02  5455   0.276E-01
RMM:   2    -0.433915824445E-01    0.20617E-02   -0.27652E-03  3645   0.756E-02    0.439E-02
RMM:   3    -0.434521285218E-01   -0.60546E-04   -0.13515E-04  3821   0.180E-02    0.252E-02
RMM:   4    -0.434912901272E-01   -0.39162E-04   -0.16250E-05  3925   0.570E-03    0.135E-02
RMM:   5    -0.435065386426E-01   -0.15249E-04   -0.72893E-06  3936   0.354E-03    0.442E-03
RMM:   6    -0.435040247862E-01    0.25139E-05   -0.34760E-06  4032   0.135E-03    0.156E-03
RMM:   7    -0.434952179268E-01    0.88069E-05   -0.51280E-06  4211   0.599E-04    0.467E-04
RMM:   8    -0.434930232149E-01    0.21947E-05   -0.54704E-06  4567   0.274E-04    0.150E-04
RMM:   9    -0.434936114603E-01   -0.58825E-06   -0.51492E-06  5146   0.157E-04    0.448E-05
 Linear response progress:
  Degree of freedom:  83/162
       N       E                     dE             d eps       ncg     rms          rms(c)
RMM:   1    -0.457680492853E-01   -0.45768E-01    0.38080E-02  5464   0.278E-01
RMM:   2    -0.433031209517E-01    0.24649E-02   -0.27867E-03  3655   0.776E-02    0.415E-02
RMM:   3    -0.433566000796E-01   -0.53479E-04   -0.14683E-04  3843   0.184E-02    0.238E-02
RMM:   4    -0.433901147414E-01   -0.33515E-04   -0.88010E-06  3957   0.560E-03    0.112E-02
RMM:   5    -0.433989693544E-01   -0.88546E-05    0.44670E-06  3961   0.298E-03    0.419E-03
RMM:   6    -0.433981412615E-01    0.82809E-06    0.12573E-05  4052   0.125E-03    0.146E-03
RMM:   7    -0.433936631336E-01    0.44781E-05    0.17159E-05  4284   0.513E-04    0.545E-04
RMM:   8    -0.433923028942E-01    0.13602E-05    0.16563E-05  4482   0.295E-04    0.133E-04
RMM:   9    -0.433925011740E-01   -0.19828E-06    0.17842E-05  5390   0.162E-04    0.496E-05
RMM:  10    -0.433921992599E-01    0.30191E-06    0.23047E-05  6029   0.140E-04    0.166E-05
RMM:  11    -0.433930269205E-01   -0.82766E-06    0.42428E-06  6573   0.132E-04    0.958E-06
 Linear response progress:
  Degree of freedom:  84/162
       N       E                     dE             d eps       ncg     rms          rms(c)
RMM:   1    -0.463944034890E-01   -0.46394E-01    0.42608E-02  5702   0.280E-01
RMM:   2    -0.435382396506E-01    0.28562E-02   -0.30156E-03  3624   0.797E-02    0.435E-02
RMM:   3    -0.435424717793E-01   -0.42321E-05   -0.16697E-04  3807   0.192E-02    0.252E-02
RMM:   4    -0.435581697508E-01   -0.15698E-04   -0.15443E-05  3945   0.541E-03    0.130E-02
RMM:   5    -0.435597276895E-01   -0.15579E-05   -0.69506E-06  3943   0.313E-03    0.518E-03
RMM:   6    -0.435595338581E-01    0.19383E-06   -0.22557E-06  3938   0.153E-03    0.142E-03
 Linear response progress:
  Degree of freedom:  85/162
       N       E                     dE             d eps       ncg     rms          rms(c)
RMM:   1    -0.454605638723E-01   -0.45461E-01    0.35749E-02  5473   0.276E-01
RMM:   2    -0.433915681257E-01    0.20690E-02   -0.27609E-03  3645   0.756E-02    0.439E-02
RMM:   3    -0.434521281055E-01   -0.60560E-04   -0.13508E-04  3818   0.180E-02    0.252E-02
RMM:   4    -0.434912987637E-01   -0.39171E-04   -0.16295E-05  3925   0.570E-03    0.135E-02
RMM:   5    -0.435065470112E-01   -0.15248E-04   -0.72910E-06  3934   0.354E-03    0.442E-03
RMM:   6    -0.435040334181E-01    0.25136E-05   -0.34844E-06  4031   0.135E-03    0.156E-03
RMM:   7    -0.434952252924E-01    0.88081E-05   -0.51367E-06  4214   0.599E-04    0.467E-04
RMM:   8    -0.434930211243E-01    0.22042E-05   -0.53821E-06  4574   0.274E-04    0.150E-04
RMM:   9    -0.434936287021E-01   -0.60758E-06   -0.50229E-06  5146   0.157E-04    0.448E-05
 Linear response progress:
  Degree of freedom:  86/162
       N       E                     dE             d eps       ncg     rms          rms(c)
RMM:   1    -0.457822970378E-01   -0.45782E-01    0.37933E-02  5462   0.278E-01
RMM:   2    -0.433031220684E-01    0.24792E-02   -0.27857E-03  3654   0.776E-02    0.415E-02
RMM:   3    -0.433566070694E-01   -0.53485E-04   -0.14677E-04  3838   0.184E-02    0.238E-02
RMM:   4    -0.433901146590E-01   -0.33508E-04   -0.87831E-06  3958   0.560E-03    0.112E-02
RMM:   5    -0.433989672246E-01   -0.88526E-05    0.44791E-06  3963   0.298E-03    0.419E-03
RMM:   6    -0.433981416769E-01    0.82555E-06    0.12564E-05  4051   0.125E-03    0.146E-03
RMM:   7    -0.433936655642E-01    0.44761E-05    0.17151E-05  4284   0.513E-04    0.545E-04
RMM:   8    -0.433923082059E-01    0.13574E-05    0.16696E-05  4481   0.295E-04    0.133E-04
RMM:   9    -0.433924875107E-01   -0.17930E-06    0.18894E-05  5374   0.163E-04    0.495E-05
RMM:  10    -0.433920450869E-01    0.44242E-06    0.24534E-05  6005   0.141E-04    0.167E-05
RMM:  11    -0.433930623691E-01   -0.10173E-05    0.14723E-05  6529   0.133E-04    0.958E-06
RMM:  12    -0.433930266447E-01    0.35724E-07    0.15462E-05  6548   0.133E-04    0.400E-06
RMM:  13    -0.433928676191E-01    0.15903E-06    0.16335E-05  6606   0.132E-04    0.119E-06
 Linear response progress:
  Degree of freedom:  87/162
       N       E                     dE             d eps       ncg     rms          rms(c)
RMM:   1    -0.464008479036E-01   -0.46401E-01    0.42535E-02  5692   0.280E-01
RMM:   2    -0.435382862368E-01    0.28626E-02   -0.30199E-03  3625   0.797E-02    0.435E-02
RMM:   3    -0.435424544170E-01   -0.41682E-05   -0.16702E-04  3807   0.192E-02    0.252E-02
RMM:   4    -0.435581565552E-01   -0.15702E-04   -0.15389E-05  3944   0.541E-03    0.130E-02
RMM:   5    -0.435597201119E-01   -0.15636E-05   -0.69217E-06  3948   0.313E-03    0.518E-03
RMM:   6    -0.435595312126E-01    0.18890E-06   -0.22410E-06  3939   0.153E-03    0.142E-03
 Linear response progress:
  Degree of freedom:  88/162
       N       E                     dE             d eps       ncg     rms          rms(c)
RMM:   1    -0.454605638255E-01   -0.45461E-01    0.35749E-02  5473   0.276E-01
RMM:   2    -0.433915581066E-01    0.20690E-02   -0.27613E-03  3650   0.756E-02    0.439E-02
RMM:   3    -0.434521388350E-01   -0.60581E-04   -0.13519E-04  3819   0.180E-02    0.252E-02
RMM:   4    -0.434912961175E-01   -0.39157E-04   -0.16292E-05  3925   0.570E-03    0.135E-02
RMM:   5    -0.435065438786E-01   -0.15248E-04   -0.73223E-06  3934   0.354E-03    0.442E-03
RMM:   6    -0.435040280102E-01    0.25159E-05   -0.35012E-06  4032   0.135E-03    0.156E-03
RMM:   7    -0.434952190065E-01    0.88090E-05   -0.51445E-06  4215   0.599E-04    0.467E-04
RMM:   8    -0.434930217838E-01    0.21972E-05   -0.54570E-06  4579   0.274E-04    0.150E-04
RMM:   9    -0.434936240036E-01   -0.60222E-06   -0.50765E-06  5150   0.157E-04    0.448E-05
 Linear response progress:
  Degree of freedom:  89/162
       N       E                     dE             d eps       ncg     rms          rms(c)
RMM:   1    -0.457822971155E-01   -0.45782E-01    0.37933E-02  5462   0.278E-01
RMM:   2    -0.433030548772E-01    0.24792E-02   -0.27870E-03  3656   0.776E-02    0.415E-02
RMM:   3    -0.433566089903E-01   -0.53554E-04   -0.14673E-04  3836   0.184E-02    0.238E-02
RMM:   4    -0.433901206998E-01   -0.33512E-04   -0.87680E-06  3958   0.560E-03    0.112E-02
RMM:   5    -0.433989661940E-01   -0.88455E-05    0.45043E-06  3962   0.298E-03    0.419E-03
RMM:   6    -0.433981373833E-01    0.82881E-06    0.12596E-05  4053   0.125E-03    0.146E-03
RMM:   7    -0.433936603151E-01    0.44771E-05    0.17178E-05  4284   0.513E-04    0.545E-04
RMM:   8    -0.433923048897E-01    0.13554E-05    0.16625E-05  4482   0.295E-04    0.133E-04
RMM:   9    -0.433923871424E-01   -0.82253E-07    0.19563E-05  5384   0.162E-04    0.496E-05
RMM:  10    -0.433928169568E-01   -0.42981E-06    0.17156E-05  6007   0.140E-04    0.166E-05
RMM:  11    -0.433931108108E-01   -0.29385E-06    0.13075E-05  6557   0.132E-04    0.957E-06
RMM:  12    -0.433930971010E-01    0.13710E-07    0.12989E-05  6577   0.132E-04    0.402E-06
RMM:  13    -0.433929182558E-01    0.17885E-06    0.14485E-05  6616   0.131E-04    0.119E-06
 Linear response progress:
  Degree of freedom:  90/162
       N       E                     dE             d eps       ncg     rms          rms(c)
RMM:   1    -0.464008477033E-01   -0.46401E-01    0.42535E-02  5692   0.280E-01
RMM:   2    -0.435383132253E-01    0.28625E-02   -0.30210E-03  3628   0.797E-02    0.435E-02
RMM:   3    -0.435424774539E-01   -0.41642E-05   -0.16716E-04  3811   0.192E-02    0.252E-02
RMM:   4    -0.435581637062E-01   -0.15686E-04   -0.15390E-05  3946   0.541E-03    0.130E-02
RMM:   5    -0.435597233362E-01   -0.15596E-05   -0.69172E-06  3951   0.313E-03    0.518E-03
RMM:   6    -0.435595313491E-01    0.19199E-06   -0.22293E-06  3940   0.153E-03    0.142E-03
 Linear response progress:
  Degree of freedom:  91/162
       N       E                     dE             d eps       ncg     rms          rms(c)
RMM:   1    -0.454479252980E-01   -0.45448E-01    0.35874E-02  5472   0.276E-01
RMM:   2    -0.433916000794E-01    0.20563E-02   -0.27576E-03  3651   0.755E-02    0.439E-02
RMM:   3    -0.434521224039E-01   -0.60522E-04   -0.13507E-04  3819   0.180E-02    0.252E-02
RMM:   4    -0.434912768221E-01   -0.39154E-04   -0.16294E-05  3924   0.570E-03    0.135E-02
RMM:   5    -0.435065193042E-01   -0.15242E-04   -0.73114E-06  3935   0.353E-03    0.442E-03
RMM:   6    -0.435040036502E-01    0.25157E-05   -0.34972E-06  4037   0.135E-03    0.156E-03
RMM:   7    -0.434951953849E-01    0.88083E-05   -0.51382E-06  4213   0.599E-04    0.467E-04
RMM:   8    -0.434929972471E-01    0.21981E-05   -0.54823E-06  4570   0.274E-04    0.150E-04
RMM:   9    -0.434935897124E-01   -0.59247E-06   -0.60173E-06  5160   0.157E-04    0.448E-05
 Linear response progress:
  Degree of freedom:  92/162
       N       E                     dE             d eps       ncg     rms          rms(c)
RMM:   1    -0.457763810364E-01   -0.45776E-01    0.37989E-02  5459   0.277E-01
RMM:   2    -0.433030186736E-01    0.24734E-02   -0.27899E-03  3658   0.776E-02    0.415E-02
RMM:   3    -0.433565953244E-01   -0.53577E-04   -0.14682E-04  3846   0.184E-02    0.238E-02
RMM:   4    -0.433901144848E-01   -0.33519E-04   -0.87851E-06  3960   0.560E-03    0.112E-02
RMM:   5    -0.433989594874E-01   -0.88450E-05    0.44928E-06  3962   0.298E-03    0.419E-03
RMM:   6    -0.433981330860E-01    0.82640E-06    0.12566E-05  4056   0.125E-03    0.146E-03
RMM:   7    -0.433936576903E-01    0.44754E-05    0.17145E-05  4283   0.513E-04    0.545E-04
RMM:   8    -0.433923044552E-01    0.13532E-05    0.16590E-05  4484   0.295E-04    0.133E-04
RMM:   9    -0.433924804463E-01   -0.17599E-06    0.18322E-05  5371   0.163E-04    0.495E-05
RMM:  10    -0.433922283538E-01    0.25209E-06    0.22931E-05  5984   0.141E-04    0.166E-05
RMM:  11    -0.433930720327E-01   -0.84368E-06    0.15559E-05  6521   0.133E-04    0.958E-06
RMM:  12    -0.433929613369E-01    0.11070E-06    0.23408E-05  6536   0.133E-04    0.400E-06
RMM:  13    -0.433928404504E-01    0.12089E-06    0.22010E-05  6571   0.132E-04    0.121E-06
 Linear response progress:
  Degree of freedom:  93/162
       N       E                     dE             d eps       ncg     rms          rms(c)
RMM:   1    -0.463768040330E-01   -0.46377E-01    0.42789E-02  5701   0.280E-01
RMM:   2    -0.435382484924E-01    0.28386E-02   -0.30127E-03  3626   0.797E-02    0.435E-02
RMM:   3    -0.435424458311E-01   -0.41973E-05   -0.16690E-04  3807   0.192E-02    0.252E-02
RMM:   4    -0.435581430076E-01   -0.15697E-04   -0.15383E-05  3946   0.541E-03    0.130E-02
RMM:   5    -0.435597019031E-01   -0.15589E-05   -0.69164E-06  3950   0.313E-03    0.518E-03
RMM:   6    -0.435595098331E-01    0.19207E-06   -0.22431E-06  3939   0.153E-03    0.142E-03
 Linear response progress:
  Degree of freedom:  94/162
       N       E                     dE             d eps       ncg     rms          rms(c)
RMM:   1    -0.454479254803E-01   -0.45448E-01    0.35874E-02  5472   0.276E-01
RMM:   2    -0.433915971308E-01    0.20563E-02   -0.27577E-03  3647   0.755E-02    0.439E-02
RMM:   3    -0.434521172335E-01   -0.60520E-04   -0.13503E-04  3817   0.180E-02    0.252E-02
RMM:   4    -0.434912759786E-01   -0.39159E-04   -0.16265E-05  3925   0.570E-03    0.135E-02
RMM:   5    -0.435065216237E-01   -0.15246E-04   -0.72992E-06  3936   0.353E-03    0.442E-03
RMM:   6    -0.435040065953E-01    0.25150E-05   -0.34829E-06  4035   0.135E-03    0.156E-03
RMM:   7    -0.434951991225E-01    0.88075E-05   -0.51361E-06  4213   0.599E-04    0.467E-04
RMM:   8    -0.434930009536E-01    0.21982E-05   -0.54540E-06  4570   0.274E-04    0.150E-04
RMM:   9    -0.434935949507E-01   -0.59400E-06   -0.49721E-06  5157   0.157E-04    0.448E-05
 Linear response progress:
  Degree of freedom:  95/162
       N       E                     dE             d eps       ncg     rms          rms(c)
RMM:   1    -0.457763813800E-01   -0.45776E-01    0.37989E-02  5461   0.277E-01
RMM:   2    -0.433030274342E-01    0.24734E-02   -0.27888E-03  3658   0.776E-02    0.415E-02
RMM:   3    -0.433565840945E-01   -0.53557E-04   -0.14679E-04  3844   0.184E-02    0.238E-02
RMM:   4    -0.433901064128E-01   -0.33522E-04   -0.87325E-06  3959   0.560E-03    0.112E-02
RMM:   5    -0.433989561042E-01   -0.88497E-05    0.45400E-06  3961   0.298E-03    0.419E-03
RMM:   6    -0.433981289257E-01    0.82718E-06    0.12642E-05  4054   0.125E-03    0.146E-03
RMM:   7    -0.433936507759E-01    0.44781E-05    0.17239E-05  4283   0.513E-04    0.545E-04
RMM:   8    -0.433922994036E-01    0.13514E-05    0.16635E-05  4480   0.295E-04    0.133E-04
RMM:   9    -0.433924409109E-01   -0.14151E-06    0.18990E-05  5374   0.163E-04    0.496E-05
RMM:  10    -0.433921609358E-01    0.27998E-06    0.23340E-05  5984   0.142E-04    0.167E-05
RMM:  11    -0.433930675885E-01   -0.90665E-06    0.16062E-05  6470   0.134E-04    0.960E-06
RMM:  12    -0.433930300553E-01    0.37533E-07    0.24178E-05  6489   0.133E-04    0.401E-06
RMM:  13    -0.433928681969E-01    0.16186E-06    0.25196E-05  6550   0.133E-04    0.120E-06
 Linear response progress:
  Degree of freedom:  96/162
       N       E                     dE             d eps       ncg     rms          rms(c)
RMM:   1    -0.463768044438E-01   -0.46377E-01    0.42789E-02  5701   0.280E-01
RMM:   2    -0.435382365098E-01    0.28386E-02   -0.30124E-03  3625   0.797E-02    0.435E-02
RMM:   3    -0.435424359586E-01   -0.41994E-05   -0.16682E-04  3805   0.192E-02    0.252E-02
RMM:   4    -0.435581350976E-01   -0.15699E-04   -0.15351E-05  3945   0.541E-03    0.130E-02
RMM:   5    -0.435596924515E-01   -0.15574E-05   -0.68640E-06  3945   0.313E-03    0.518E-03
RMM:   6    -0.435594995756E-01    0.19288E-06   -0.21744E-06  3938   0.153E-03    0.142E-03
 Linear response progress:
  Degree of freedom:  97/162
       N       E                     dE             d eps       ncg     rms          rms(c)
RMM:   1    -0.454376533963E-01   -0.45438E-01    0.35980E-02  5469   0.276E-01
RMM:   2    -0.433915829396E-01    0.20461E-02   -0.27589E-03  3650   0.756E-02    0.439E-02
RMM:   3    -0.434521070240E-01   -0.60524E-04   -0.13504E-04  3818   0.180E-02    0.252E-02
RMM:   4    -0.434912649083E-01   -0.39158E-04   -0.16289E-05  3924   0.570E-03    0.135E-02
RMM:   5    -0.435065067691E-01   -0.15242E-04   -0.72983E-06  3936   0.354E-03    0.442E-03
RMM:   6    -0.435039914206E-01    0.25153E-05   -0.34846E-06  4035   0.135E-03    0.156E-03
RMM:   7    -0.434951854044E-01    0.88060E-05   -0.51361E-06  4212   0.599E-04    0.467E-04
RMM:   8    -0.434929805421E-01    0.22049E-05   -0.54011E-06  4571   0.274E-04    0.150E-04
RMM:   9    -0.434935685074E-01   -0.58797E-06   -0.57818E-06  5163   0.156E-04    0.448E-05
 Linear response progress:
  Degree of freedom:  98/162
       N       E                     dE             d eps       ncg     rms          rms(c)
RMM:   1    -0.457644972621E-01   -0.45764E-01    0.38118E-02  5467   0.278E-01
RMM:   2    -0.433031512264E-01    0.24613E-02   -0.27852E-03  3653   0.776E-02    0.415E-02
RMM:   3    -0.433565890728E-01   -0.53438E-04   -0.14672E-04  3839   0.184E-02    0.238E-02
RMM:   4    -0.433900981840E-01   -0.33509E-04   -0.87512E-06  3956   0.560E-03    0.112E-02
RMM:   5    -0.433989494917E-01   -0.88513E-05    0.45032E-06  3963   0.298E-03    0.419E-03
RMM:   6    -0.433981225354E-01    0.82696E-06    0.12592E-05  4054   0.125E-03    0.146E-03
RMM:   7    -0.433936454209E-01    0.44771E-05    0.17178E-05  4282   0.513E-04    0.545E-04
RMM:   8    -0.433922955332E-01    0.13499E-05    0.16486E-05  4489   0.295E-04    0.133E-04
RMM:   9    -0.433924329210E-01   -0.13739E-06    0.18600E-05  5361   0.163E-04    0.495E-05
RMM:  10    -0.433922060661E-01    0.22685E-06    0.23548E-05  5980   0.142E-04    0.166E-05
RMM:  11    -0.433930864286E-01   -0.88036E-06    0.24392E-05  6499   0.134E-04    0.959E-06
RMM:  12    -0.433930430669E-01    0.43362E-07    0.37084E-05  6521   0.133E-04    0.402E-06
RMM:  13    -0.433928541595E-01    0.18891E-06    0.35654E-05  6581   0.133E-04    0.119E-06
 Linear response progress:
  Degree of freedom:  99/162
       N       E                     dE             d eps       ncg     rms          rms(c)
RMM:   1    -0.463640910900E-01   -0.46364E-01    0.42913E-02  5707   0.280E-01
RMM:   2    -0.435382865051E-01    0.28258E-02   -0.30119E-03  3624   0.797E-02    0.435E-02
RMM:   3    -0.435424109462E-01   -0.41244E-05   -0.16673E-04  3805   0.192E-02    0.252E-02
RMM:   4    -0.435581218426E-01   -0.15711E-04   -0.15313E-05  3944   0.541E-03    0.130E-02
RMM:   5    -0.435596862481E-01   -0.15644E-05   -0.68462E-06  3946   0.313E-03    0.518E-03
RMM:   6    -0.435594965272E-01    0.18972E-06   -0.21648E-06  3938   0.153E-03    0.142E-03
 Linear response progress:
  Degree of freedom: 100/162
       N       E                     dE             d eps       ncg     rms          rms(c)
RMM:   1    -0.454376533913E-01   -0.45438E-01    0.35980E-02  5469   0.276E-01
RMM:   2    -0.433915708375E-01    0.20461E-02   -0.27593E-03  3654   0.756E-02    0.439E-02
RMM:   3    -0.434521116129E-01   -0.60541E-04   -0.13505E-04  3819   0.180E-02    0.252E-02
RMM:   4    -0.434912667749E-01   -0.39155E-04   -0.16271E-05  3924   0.570E-03    0.135E-02
RMM:   5    -0.435065084983E-01   -0.15242E-04   -0.72964E-06  3935   0.353E-03    0.442E-03
RMM:   6    -0.435039926970E-01    0.25158E-05   -0.34835E-06  4034   0.135E-03    0.156E-03
RMM:   7    -0.434951855269E-01    0.88072E-05   -0.51263E-06  4212   0.599E-04    0.467E-04
RMM:   8    -0.434929847202E-01    0.22008E-05   -0.54364E-06  4573   0.274E-04    0.150E-04
RMM:   9    -0.434935670126E-01   -0.58229E-06   -0.54837E-06  5162   0.156E-04    0.448E-05
 Linear response progress:
  Degree of freedom: 101/162
       N       E                     dE             d eps       ncg     rms          rms(c)
RMM:   1    -0.457644969667E-01   -0.45764E-01    0.38118E-02  5465   0.278E-01
RMM:   2    -0.433030913507E-01    0.24614E-02   -0.27867E-03  3655   0.776E-02    0.415E-02
RMM:   3    -0.433566018053E-01   -0.53510E-04   -0.14676E-04  3840   0.184E-02    0.238E-02
RMM:   4    -0.433901134407E-01   -0.33512E-04   -0.87859E-06  3958   0.560E-03    0.112E-02
RMM:   5    -0.433989571678E-01   -0.88437E-05    0.44884E-06  3962   0.298E-03    0.419E-03
RMM:   6    -0.433981272491E-01    0.82992E-06    0.12579E-05  4055   0.125E-03    0.146E-03
RMM:   7    -0.433936492277E-01    0.44780E-05    0.17165E-05  4284   0.513E-04    0.545E-04
RMM:   8    -0.433922924807E-01    0.13567E-05    0.16706E-05  4487   0.296E-04    0.133E-04
RMM:   9    -0.433924663156E-01   -0.17383E-06    0.19372E-05  5368   0.164E-04    0.495E-05
RMM:  10    -0.433922491853E-01    0.21713E-06    0.24039E-05  5966   0.142E-04    0.166E-05
RMM:  11    -0.433930046470E-01   -0.75546E-06    0.21512E-05  6480   0.135E-04    0.959E-06
RMM:  12    -0.433930271261E-01   -0.22479E-07    0.27883E-05  6510   0.134E-04    0.402E-06
RMM:  13    -0.433928320252E-01    0.19510E-06    0.26827E-05  6568   0.134E-04    0.119E-06
 Linear response progress:
  Degree of freedom: 102/162
       N       E                     dE             d eps       ncg     rms          rms(c)
RMM:   1    -0.463640909365E-01   -0.46364E-01    0.42913E-02  5707   0.280E-01
RMM:   2    -0.435383232743E-01    0.28258E-02   -0.30131E-03  3627   0.797E-02    0.435E-02
RMM:   3    -0.435424410644E-01   -0.41178E-05   -0.16699E-04  3809   0.192E-02    0.252E-02
RMM:   4    -0.435581340781E-01   -0.15693E-04   -0.15425E-05  3946   0.541E-03    0.130E-02
RMM:   5    -0.435596919883E-01   -0.15579E-05   -0.69438E-06  3949   0.313E-03    0.518E-03
RMM:   6    -0.435594989600E-01    0.19303E-06   -0.22544E-06  3939   0.153E-03    0.142E-03
 Linear response progress:
  Degree of freedom: 103/162
       N       E                     dE             d eps       ncg     rms          rms(c)
RMM:   1    -0.454589276353E-01   -0.45459E-01    0.35764E-02  5466   0.276E-01
RMM:   2    -0.433916473225E-01    0.20673E-02   -0.27638E-03  3649   0.756E-02    0.439E-02
RMM:   3    -0.434521074305E-01   -0.60460E-04   -0.13514E-04  3820   0.180E-02    0.252E-02
RMM:   4    -0.434912670146E-01   -0.39160E-04   -0.16255E-05  3926   0.570E-03    0.135E-02
RMM:   5    -0.435065133525E-01   -0.15246E-04   -0.72858E-06  3936   0.354E-03    0.442E-03
RMM:   6    -0.435039984907E-01    0.25149E-05   -0.34740E-06  4033   0.135E-03    0.156E-03
RMM:   7    -0.434951914950E-01    0.88070E-05   -0.51217E-06  4212   0.599E-04    0.466E-04
RMM:   8    -0.434929908130E-01    0.22007E-05   -0.54355E-06  4574   0.274E-04    0.150E-04
RMM:   9    -0.434935913706E-01   -0.60056E-06   -0.59746E-06  5160   0.156E-04    0.448E-05
 Linear response progress:
  Degree of freedom: 104/162
       N       E                     dE             d eps       ncg     rms          rms(c)
RMM:   1    -0.457771865277E-01   -0.45777E-01    0.37986E-02  5466   0.277E-01
RMM:   2    -0.433029940061E-01    0.24742E-02   -0.27887E-03  3656   0.776E-02    0.415E-02
RMM:   3    -0.433565961888E-01   -0.53602E-04   -0.14676E-04  3841   0.184E-02    0.238E-02
RMM:   4    -0.433901112430E-01   -0.33515E-04   -0.87434E-06  3959   0.560E-03    0.112E-02
RMM:   5    -0.433989565226E-01   -0.88453E-05    0.45210E-06  3962   0.298E-03    0.419E-03
RMM:   6    -0.433981263886E-01    0.83013E-06    0.12624E-05  4054   0.125E-03    0.146E-03
RMM:   7    -0.433936487190E-01    0.44777E-05    0.17214E-05  4284   0.513E-04    0.545E-04
RMM:   8    -0.433922949824E-01    0.13537E-05    0.16680E-05  4481   0.295E-04    0.133E-04
RMM:   9    -0.433924486392E-01   -0.15366E-06    0.19359E-05  5383   0.163E-04    0.496E-05
RMM:  10    -0.433932676117E-01   -0.81897E-06    0.13917E-05  5988   0.141E-04    0.166E-05
RMM:  11    -0.433930774214E-01    0.19019E-06    0.13008E-05  6514   0.133E-04    0.959E-06
RMM:  12    -0.433929950136E-01    0.82408E-07    0.84382E-06  6531   0.133E-04    0.400E-06
 Linear response progress:
  Degree of freedom: 105/162
       N       E                     dE             d eps       ncg     rms          rms(c)
RMM:   1    -0.463918082137E-01   -0.46392E-01    0.42630E-02  5693   0.279E-01
RMM:   2    -0.435383708819E-01    0.28534E-02   -0.30205E-03  3627   0.798E-02    0.435E-02
RMM:   3    -0.435424331409E-01   -0.40623E-05   -0.16706E-04  3807   0.192E-02    0.252E-02
RMM:   4    -0.435581231606E-01   -0.15690E-04   -0.15372E-05  3946   0.541E-03    0.130E-02
RMM:   5    -0.435596825938E-01   -0.15594E-05   -0.68802E-06  3951   0.313E-03    0.518E-03
RMM:   6    -0.435594911716E-01    0.19142E-06   -0.21824E-06  3941   0.153E-03    0.142E-03
 Linear response progress:
  Degree of freedom: 106/162
       N       E                     dE             d eps       ncg     rms          rms(c)
RMM:   1    -0.454589279908E-01   -0.45459E-01    0.35764E-02  5466   0.276E-01
RMM:   2    -0.433916650480E-01    0.20673E-02   -0.27633E-03  3647   0.756E-02    0.439E-02
RMM:   3    -0.434521085923E-01   -0.60444E-04   -0.13518E-04  3820   0.180E-02    0.252E-02
RMM:   4    -0.434912665497E-01   -0.39158E-04   -0.16302E-05  3926   0.570E-03    0.135E-02
RMM:   5    -0.435065099541E-01   -0.15243E-04   -0.72997E-06  3937   0.353E-03    0.442E-03
RMM:   6    -0.435039960582E-01    0.25139E-05   -0.34894E-06  4035   0.135E-03    0.156E-03
RMM:   7    -0.434951885068E-01    0.88076E-05   -0.51335E-06  4210   0.599E-04    0.467E-04
RMM:   8    -0.434929879679E-01    0.22005E-05   -0.54503E-06  4571   0.274E-04    0.150E-04
RMM:   9    -0.434935950772E-01   -0.60711E-06   -0.62787E-06  5161   0.156E-04    0.448E-05
 Linear response progress:
  Degree of freedom: 107/162
       N       E                     dE             d eps       ncg     rms          rms(c)
RMM:   1    -0.457771869959E-01   -0.45777E-01    0.37986E-02  5466   0.277E-01
RMM:   2    -0.433030439193E-01    0.24741E-02   -0.27883E-03  3656   0.776E-02    0.415E-02
RMM:   3    -0.433565912193E-01   -0.53547E-04   -0.14673E-04  3842   0.184E-02    0.238E-02
RMM:   4    -0.433901014333E-01   -0.33510E-04   -0.87351E-06  3958   0.560E-03    0.112E-02
RMM:   5    -0.433989489311E-01   -0.88475E-05    0.45152E-06  3961   0.298E-03    0.419E-03
RMM:   6    -0.433981229722E-01    0.82596E-06    0.12586E-05  4055   0.125E-03    0.146E-03
RMM:   7    -0.433936484171E-01    0.44746E-05    0.17160E-05  4286   0.513E-04    0.545E-04
RMM:   8    -0.433922896779E-01    0.13587E-05    0.16588E-05  4478   0.295E-04    0.133E-04
RMM:   9    -0.433925517112E-01   -0.26203E-06    0.17151E-05  5369   0.163E-04    0.495E-05
RMM:  10    -0.433924082879E-01    0.14342E-06    0.20736E-05  6003   0.141E-04    0.166E-05
RMM:  11    -0.433928971437E-01   -0.48886E-06    0.33822E-05  6545   0.133E-04    0.959E-06
RMM:  12    -0.433928969471E-01    0.19662E-09    0.37409E-05  6559   0.132E-04    0.401E-06
RMM:  13    -0.433927490456E-01    0.14790E-06    0.37378E-05  6599   0.132E-04    0.119E-06
 Linear response progress:
  Degree of freedom: 108/162
       N       E                     dE             d eps       ncg     rms          rms(c)
RMM:   1    -0.463918087254E-01   -0.46392E-01    0.42630E-02  5693   0.279E-01
RMM:   2    -0.435383470721E-01    0.28535E-02   -0.30196E-03  3627   0.797E-02    0.435E-02
RMM:   3    -0.435424136589E-01   -0.40666E-05   -0.16689E-04  3806   0.192E-02    0.252E-02
RMM:   4    -0.435581201730E-01   -0.15707E-04   -0.15309E-05  3946   0.541E-03    0.130E-02
RMM:   5    -0.435596874173E-01   -0.15672E-05   -0.68511E-06  3948   0.313E-03    0.518E-03
RMM:   6    -0.435594998053E-01    0.18761E-06   -0.21771E-06  3942   0.153E-03    0.142E-03
 Linear response progress:
  Degree of freedom: 109/162
       N       E                     dE             d eps       ncg     rms          rms(c)
RMM:   1    -0.454741032770E-01   -0.45474E-01    0.35617E-02  5481   0.276E-01
RMM:   2    -0.433553092135E-01    0.21188E-02   -0.27851E-03  3655   0.757E-02    0.439E-02
RMM:   3    -0.434079815162E-01   -0.52672E-04   -0.14349E-04  3816   0.180E-02    0.252E-02
RMM:   4    -0.434417075331E-01   -0.33726E-04   -0.20029E-05  3934   0.570E-03    0.134E-02
RMM:   5    -0.434580096410E-01   -0.16302E-04   -0.82528E-06  3935   0.353E-03    0.443E-03
RMM:   6    -0.434549334746E-01    0.30762E-05   -0.50795E-06  4055   0.136E-03    0.156E-03
RMM:   7    -0.434464659302E-01    0.84675E-05   -0.68181E-06  4203   0.598E-04    0.462E-04
RMM:   8    -0.434443174794E-01    0.21485E-05   -0.68785E-06  4525   0.270E-04    0.148E-04
RMM:   9    -0.434448691742E-01   -0.55169E-06   -0.35432E-06  5177   0.151E-04    0.475E-05
 Linear response progress:
  Degree of freedom: 110/162
       N       E                     dE             d eps       ncg     rms          rms(c)
RMM:   1    -0.458060980134E-01   -0.45806E-01    0.37701E-02  5479   0.278E-01
RMM:   2    -0.431738210644E-01    0.26323E-02   -0.28833E-03  3653   0.777E-02    0.415E-02
RMM:   3    -0.432029554590E-01   -0.29134E-04   -0.15781E-04  3843   0.184E-02    0.239E-02
RMM:   4    -0.432296757494E-01   -0.26720E-04   -0.18189E-05  3960   0.561E-03    0.112E-02
RMM:   5    -0.432364819629E-01   -0.68062E-05   -0.13032E-05  3960   0.298E-03    0.420E-03
RMM:   6    -0.432367791294E-01   -0.29717E-06   -0.12250E-05  4028   0.125E-03    0.147E-03
RMM:   7    -0.432332992700E-01    0.34799E-05   -0.14822E-05  4315   0.510E-04    0.551E-04
RMM:   8    -0.432318003780E-01    0.14989E-05   -0.13852E-05  4523   0.292E-04    0.135E-04
RMM:   9    -0.432319673391E-01   -0.16696E-06   -0.11523E-05  5381   0.160E-04    0.508E-05
RMM:  10    -0.432323122668E-01   -0.34493E-06   -0.12592E-05  5958   0.138E-04    0.167E-05
RMM:  11    -0.432316679089E-01    0.64436E-06    0.10513E-05  6510   0.130E-04    0.963E-06
RMM:  12    -0.432318375714E-01   -0.16966E-06    0.10402E-05  6544   0.130E-04    0.401E-06
RMM:  13    -0.432318253419E-01    0.12230E-07    0.12576E-05  6621   0.129E-04    0.133E-06
 Linear response progress:
  Degree of freedom: 111/162
       N       E                     dE             d eps       ncg     rms          rms(c)
RMM:   1    -0.464103945217E-01   -0.46410E-01    0.42435E-02  5707   0.280E-01
RMM:   2    -0.435286998819E-01    0.28817E-02   -0.30175E-03  3626   0.797E-02    0.434E-02
RMM:   3    -0.435383380929E-01   -0.96382E-05   -0.16395E-04  3817   0.192E-02    0.252E-02
RMM:   4    -0.435507778635E-01   -0.12440E-04   -0.12506E-05  3943   0.540E-03    0.130E-02
RMM:   5    -0.435537751002E-01   -0.29972E-05   -0.47666E-06  3938   0.315E-03    0.513E-03
RMM:   6    -0.435526861420E-01    0.10890E-05   -0.10544E-06  3938   0.152E-03    0.141E-03
RMM:   7    -0.435517788757E-01    0.90727E-06   -0.75885E-07  4298   0.507E-04    0.556E-04
 Linear response progress:
  Degree of freedom: 112/162
       N       E                     dE             d eps       ncg     rms          rms(c)
RMM:   1    -0.454741032748E-01   -0.45474E-01    0.35617E-02  5481   0.276E-01
RMM:   2    -0.433553286450E-01    0.21188E-02   -0.27850E-03  3655   0.757E-02    0.439E-02
RMM:   3    -0.434079946678E-01   -0.52666E-04   -0.14361E-04  3816   0.180E-02    0.252E-02
RMM:   4    -0.434417117242E-01   -0.33717E-04   -0.20063E-05  3934   0.570E-03    0.134E-02
RMM:   5    -0.434580117156E-01   -0.16300E-04   -0.82587E-06  3935   0.353E-03    0.443E-03
RMM:   6    -0.434549352791E-01    0.30764E-05   -0.50787E-06  4054   0.136E-03    0.156E-03
RMM:   7    -0.434464675288E-01    0.84678E-05   -0.68144E-06  4201   0.598E-04    0.462E-04
RMM:   8    -0.434443207127E-01    0.21468E-05   -0.68380E-06  4530   0.270E-04    0.148E-04
RMM:   9    -0.434448710973E-01   -0.55038E-06   -0.40402E-06  5176   0.151E-04    0.475E-05
 Linear response progress:
  Degree of freedom: 113/162
       N       E                     dE             d eps       ncg     rms          rms(c)
RMM:   1    -0.458060980402E-01   -0.45806E-01    0.37701E-02  5479   0.278E-01
RMM:   2    -0.431738199370E-01    0.26323E-02   -0.28820E-03  3652   0.777E-02    0.415E-02
RMM:   3    -0.432029445981E-01   -0.29125E-04   -0.15775E-04  3840   0.184E-02    0.239E-02
RMM:   4    -0.432296643533E-01   -0.26720E-04   -0.18168E-05  3960   0.561E-03    0.112E-02
RMM:   5    -0.432364737515E-01   -0.68094E-05   -0.13027E-05  3961   0.298E-03    0.420E-03
RMM:   6    -0.432367721107E-01   -0.29836E-06   -0.12242E-05  4029   0.125E-03    0.147E-03
RMM:   7    -0.432332921877E-01    0.34799E-05   -0.14796E-05  4316   0.510E-04    0.551E-04
RMM:   8    -0.432317972447E-01    0.14949E-05   -0.14378E-05  4517   0.292E-04    0.135E-04
RMM:   9    -0.432318903361E-01   -0.93091E-07   -0.12658E-05  5377   0.160E-04    0.508E-05
RMM:  10    -0.432325826931E-01   -0.69236E-06   -0.17562E-05  5972   0.138E-04    0.167E-05
RMM:  11    -0.432316834863E-01    0.89921E-06    0.10244E-05  6526   0.130E-04    0.962E-06
RMM:  12    -0.432318551811E-01   -0.17169E-06    0.13801E-05  6548   0.129E-04    0.399E-06
RMM:  13    -0.432318128071E-01    0.42374E-07    0.18008E-05  6601   0.129E-04    0.138E-06
 Linear response progress:
  Degree of freedom: 114/162
       N       E                     dE             d eps       ncg     rms          rms(c)
RMM:   1    -0.464103947312E-01   -0.46410E-01    0.42435E-02  5707   0.280E-01
RMM:   2    -0.435286820148E-01    0.28817E-02   -0.30174E-03  3622   0.797E-02    0.434E-02
RMM:   3    -0.435383425198E-01   -0.96605E-05   -0.16393E-04  3815   0.192E-02    0.252E-02
RMM:   4    -0.435507848746E-01   -0.12442E-04   -0.12519E-05  3942   0.540E-03    0.130E-02
RMM:   5    -0.435537834898E-01   -0.29986E-05   -0.47916E-06  3938   0.315E-03    0.513E-03
RMM:   6    -0.435526952460E-01    0.10882E-05   -0.10783E-06  3939   0.152E-03    0.141E-03
RMM:   7    -0.435517869883E-01    0.90826E-06   -0.77413E-07  4297   0.507E-04    0.556E-04
 Linear response progress:
  Degree of freedom: 115/162
       N       E                     dE             d eps       ncg     rms          rms(c)
RMM:   1    -0.454696444738E-01   -0.45470E-01    0.35658E-02  5488   0.276E-01
RMM:   2    -0.433553954481E-01    0.21142E-02   -0.27848E-03  3653   0.756E-02    0.439E-02
RMM:   3    -0.434080003693E-01   -0.52605E-04   -0.14355E-04  3821   0.180E-02    0.252E-02
RMM:   4    -0.434417157091E-01   -0.33715E-04   -0.20047E-05  3933   0.570E-03    0.134E-02
RMM:   5    -0.434580065811E-01   -0.16291E-04   -0.82501E-06  3935   0.353E-03    0.443E-03
RMM:   6    -0.434549294642E-01    0.30771E-05   -0.50725E-06  4055   0.136E-03    0.156E-03
RMM:   7    -0.434464635285E-01    0.84659E-05   -0.68143E-06  4200   0.598E-04    0.462E-04
RMM:   8    -0.434443152188E-01    0.21483E-05   -0.67368E-06  4524   0.270E-04    0.148E-04
RMM:   9    -0.434449171463E-01   -0.60193E-06   -0.33548E-06  5175   0.151E-04    0.474E-05
 Linear response progress:
  Degree of freedom: 116/162
       N       E                     dE             d eps       ncg     rms          rms(c)
RMM:   1    -0.457887486603E-01   -0.45789E-01    0.37867E-02  5477   0.277E-01
RMM:   2    -0.431737075726E-01    0.26150E-02   -0.28813E-03  3650   0.777E-02    0.415E-02
RMM:   3    -0.432029260085E-01   -0.29218E-04   -0.15763E-04  3842   0.184E-02    0.239E-02
RMM:   4    -0.432296676885E-01   -0.26742E-04   -0.18109E-05  3960   0.561E-03    0.112E-02
RMM:   5    -0.432364796812E-01   -0.68120E-05   -0.12966E-05  3961   0.298E-03    0.420E-03
RMM:   6    -0.432367756959E-01   -0.29601E-06   -0.12184E-05  4028   0.125E-03    0.147E-03
RMM:   7    -0.432332947077E-01    0.34810E-05   -0.14755E-05  4317   0.510E-04    0.551E-04
RMM:   8    -0.432317987449E-01    0.14960E-05   -0.14167E-05  4518   0.292E-04    0.135E-04
RMM:   9    -0.432319243771E-01   -0.12563E-06   -0.12452E-05  5387   0.160E-04    0.508E-05
RMM:  10    -0.432324917198E-01   -0.56734E-06   -0.16851E-05  5969   0.138E-04    0.166E-05
RMM:  11    -0.432316673384E-01    0.82438E-06    0.42765E-06  6531   0.129E-04    0.963E-06
 Linear response progress:
  Degree of freedom: 117/162
       N       E                     dE             d eps       ncg     rms          rms(c)
RMM:   1    -0.463981770740E-01   -0.46398E-01    0.42562E-02  5713   0.280E-01
RMM:   2    -0.435285434015E-01    0.28696E-02   -0.30147E-03  3622   0.797E-02    0.434E-02
RMM:   3    -0.435383702700E-01   -0.98269E-05   -0.16402E-04  3814   0.192E-02    0.252E-02
RMM:   4    -0.435507934733E-01   -0.12423E-04   -0.12528E-05  3941   0.540E-03    0.130E-02
RMM:   5    -0.435537881193E-01   -0.29946E-05   -0.47939E-06  3937   0.315E-03    0.513E-03
RMM:   6    -0.435526984660E-01    0.10897E-05   -0.10787E-06  3941   0.152E-03    0.142E-03
RMM:   7    -0.435517902087E-01    0.90826E-06   -0.76898E-07  4298   0.507E-04    0.556E-04
 Linear response progress:
  Degree of freedom: 118/162
       N       E                     dE             d eps       ncg     rms          rms(c)
RMM:   1    -0.454696445498E-01   -0.45470E-01    0.35658E-02  5488   0.276E-01
RMM:   2    -0.433554010550E-01    0.21142E-02   -0.27849E-03  3653   0.756E-02    0.439E-02
RMM:   3    -0.434079960601E-01   -0.52595E-04   -0.14351E-04  3816   0.180E-02    0.252E-02
RMM:   4    -0.434417108827E-01   -0.33715E-04   -0.20014E-05  3932   0.570E-03    0.134E-02
RMM:   5    -0.434580063927E-01   -0.16296E-04   -0.82464E-06  3935   0.353E-03    0.443E-03
RMM:   6    -0.434549298691E-01    0.30765E-05   -0.50690E-06  4054   0.136E-03    0.156E-03
RMM:   7    -0.434464647151E-01    0.84652E-05   -0.68106E-06  4200   0.598E-04    0.462E-04
RMM:   8    -0.434443127352E-01    0.21520E-05   -0.67550E-06  4526   0.270E-04    0.148E-04
RMM:   9    -0.434449254619E-01   -0.61273E-06   -0.22196E-06  5176   0.151E-04    0.474E-05
 Linear response progress:
  Degree of freedom: 119/162
       N       E                     dE             d eps       ncg     rms          rms(c)
RMM:   1    -0.457887487555E-01   -0.45789E-01    0.37867E-02  5477   0.277E-01
RMM:   2    -0.431737279981E-01    0.26150E-02   -0.28829E-03  3653   0.777E-02    0.415E-02
RMM:   3    -0.432029558365E-01   -0.29228E-04   -0.15786E-04  3843   0.184E-02    0.239E-02
RMM:   4    -0.432296813992E-01   -0.26726E-04   -0.18186E-05  3962   0.561E-03    0.112E-02
RMM:   5    -0.432364865212E-01   -0.68051E-05   -0.13004E-05  3962   0.298E-03    0.420E-03
RMM:   6    -0.432367822514E-01   -0.29573E-06   -0.12231E-05  4027   0.125E-03    0.147E-03
RMM:   7    -0.432332992600E-01    0.34830E-05   -0.14791E-05  4315   0.510E-04    0.551E-04
RMM:   8    -0.432318031436E-01    0.14961E-05   -0.13862E-05  4523   0.292E-04    0.135E-04
RMM:   9    -0.432319411429E-01   -0.13800E-06   -0.11348E-05  5391   0.159E-04    0.508E-05
RMM:  10    -0.432322235796E-01   -0.28244E-06   -0.13291E-05  5996   0.137E-04    0.167E-05
RMM:  11    -0.432317401018E-01    0.48348E-06   -0.68049E-06  6572   0.129E-04    0.962E-06
 Linear response progress:
  Degree of freedom: 120/162
       N       E                     dE             d eps       ncg     rms          rms(c)
RMM:   1    -0.463981770726E-01   -0.46398E-01    0.42562E-02  5713   0.280E-01
RMM:   2    -0.435285273602E-01    0.28696E-02   -0.30147E-03  3626   0.797E-02    0.434E-02
RMM:   3    -0.435383496670E-01   -0.98223E-05   -0.16385E-04  3817   0.192E-02    0.252E-02
RMM:   4    -0.435507853383E-01   -0.12436E-04   -0.12473E-05  3942   0.540E-03    0.130E-02
RMM:   5    -0.435537792062E-01   -0.29939E-05   -0.47452E-06  3938   0.315E-03    0.513E-03
RMM:   6    -0.435526897695E-01    0.10894E-05   -0.10326E-06  3941   0.152E-03    0.142E-03
RMM:   7    -0.435517806500E-01    0.90912E-06   -0.71998E-07  4297   0.507E-04    0.556E-04
 Linear response progress:
  Degree of freedom: 121/162
       N       E                     dE             d eps       ncg     rms          rms(c)
RMM:   1    -0.454755206435E-01   -0.45476E-01    0.35600E-02  5480   0.276E-01
RMM:   2    -0.433553735232E-01    0.21201E-02   -0.27859E-03  3654   0.757E-02    0.439E-02
RMM:   3    -0.434080051327E-01   -0.52632E-04   -0.14359E-04  3820   0.180E-02    0.252E-02
RMM:   4    -0.434417151566E-01   -0.33710E-04   -0.20048E-05  3932   0.570E-03    0.134E-02
RMM:   5    -0.434580123352E-01   -0.16297E-04   -0.82613E-06  3935   0.353E-03    0.443E-03
RMM:   6    -0.434549348551E-01    0.30775E-05   -0.50790E-06  4052   0.136E-03    0.156E-03
RMM:   7    -0.434464691094E-01    0.84657E-05   -0.68186E-06  4201   0.598E-04    0.462E-04
RMM:   8    -0.434443151573E-01    0.21540E-05   -0.67451E-06  4533   0.270E-04    0.148E-04
RMM:   9    -0.434449222871E-01   -0.60713E-06   -0.39040E-06  5172   0.151E-04    0.475E-05
 Linear response progress:
  Degree of freedom: 122/162
       N       E                     dE             d eps       ncg     rms          rms(c)
RMM:   1    -0.458022205025E-01   -0.45802E-01    0.37737E-02  5474   0.278E-01
RMM:   2    -0.431739355018E-01    0.26283E-02   -0.28784E-03  3652   0.776E-02    0.415E-02
RMM:   3    -0.432029766115E-01   -0.29041E-04   -0.15773E-04  3840   0.184E-02    0.239E-02
RMM:   4    -0.432296852025E-01   -0.26709E-04   -0.18192E-05  3961   0.561E-03    0.112E-02
RMM:   5    -0.432364841254E-01   -0.67989E-05   -0.13022E-05  3962   0.298E-03    0.420E-03
RMM:   6    -0.432367786502E-01   -0.29452E-06   -0.12245E-05  4028   0.125E-03    0.147E-03
RMM:   7    -0.432332957471E-01    0.34829E-05   -0.14795E-05  4317   0.510E-04    0.551E-04
RMM:   8    -0.432318028052E-01    0.14929E-05   -0.14199E-05  4515   0.292E-04    0.135E-04
RMM:   9    -0.432319183922E-01   -0.11559E-06   -0.12291E-05  5385   0.160E-04    0.507E-05
RMM:  10    -0.432322546779E-01   -0.33629E-06   -0.14616E-05  5974   0.138E-04    0.167E-05
RMM:  11    -0.432316752513E-01    0.57943E-06   -0.12087E-05  6514   0.130E-04    0.963E-06
RMM:  12    -0.432318409801E-01   -0.16573E-06   -0.11455E-05  6533   0.130E-04    0.400E-06
RMM:  13    -0.432318111530E-01    0.29827E-07   -0.93229E-06  6593   0.129E-04    0.135E-06
 Linear response progress:
  Degree of freedom: 123/162
       N       E                     dE             d eps       ncg     rms          rms(c)
RMM:   1    -0.463909242358E-01   -0.46391E-01    0.42631E-02  5703   0.280E-01
RMM:   2    -0.435284112110E-01    0.28625E-02   -0.30119E-03  3624   0.797E-02    0.434E-02
RMM:   3    -0.435383356256E-01   -0.99244E-05   -0.16373E-04  3813   0.192E-02    0.252E-02
RMM:   4    -0.435507847125E-01   -0.12449E-04   -0.12455E-05  3942   0.540E-03    0.130E-02
RMM:   5    -0.435537809303E-01   -0.29962E-05   -0.47345E-06  3937   0.315E-03    0.513E-03
RMM:   6    -0.435526899185E-01    0.10910E-05   -0.10210E-06  3939   0.152E-03    0.141E-03
RMM:   7    -0.435517783787E-01    0.91154E-06   -0.69850E-07  4297   0.507E-04    0.556E-04
 Linear response progress:
  Degree of freedom: 124/162
       N       E                     dE             d eps       ncg     rms          rms(c)
RMM:   1    -0.454755201846E-01   -0.45476E-01    0.35600E-02  5480   0.276E-01
RMM:   2    -0.433553493342E-01    0.21202E-02   -0.27859E-03  3654   0.757E-02    0.439E-02
RMM:   3    -0.434079957902E-01   -0.52646E-04   -0.14350E-04  3823   0.180E-02    0.252E-02
RMM:   4    -0.434417153632E-01   -0.33720E-04   -0.20042E-05  3932   0.570E-03    0.134E-02
RMM:   5    -0.434580093094E-01   -0.16294E-04   -0.82533E-06  3933   0.353E-03    0.443E-03
RMM:   6    -0.434549317638E-01    0.30775E-05   -0.50780E-06  4054   0.136E-03    0.156E-03
RMM:   7    -0.434464651252E-01    0.84666E-05   -0.68186E-06  4200   0.598E-04    0.462E-04
RMM:   8    -0.434443122525E-01    0.21529E-05   -0.67514E-06  4528   0.270E-04    0.148E-04
RMM:   9    -0.434449236372E-01   -0.61138E-06   -0.32904E-06  5173   0.151E-04    0.475E-05
 Linear response progress:
  Degree of freedom: 125/162
       N       E                     dE             d eps       ncg     rms          rms(c)
RMM:   1    -0.458022200324E-01   -0.45802E-01    0.37737E-02  5474   0.278E-01
RMM:   2    -0.431739164442E-01    0.26283E-02   -0.28780E-03  3650   0.776E-02    0.415E-02
RMM:   3    -0.432029565167E-01   -0.29040E-04   -0.15755E-04  3840   0.184E-02    0.239E-02
RMM:   4    -0.432296810690E-01   -0.26725E-04   -0.18130E-05  3960   0.561E-03    0.112E-02
RMM:   5    -0.432364831664E-01   -0.68021E-05   -0.12982E-05  3961   0.298E-03    0.420E-03
RMM:   6    -0.432367765047E-01   -0.29334E-06   -0.12200E-05  4025   0.125E-03    0.147E-03
RMM:   7    -0.432332962538E-01    0.34803E-05   -0.14781E-05  4320   0.510E-04    0.551E-04
RMM:   8    -0.432317979864E-01    0.14983E-05   -0.13899E-05  4514   0.292E-04    0.135E-04
RMM:   9    -0.432319496357E-01   -0.15165E-06   -0.11733E-05  5384   0.159E-04    0.508E-05
RMM:  10    -0.432322772492E-01   -0.32761E-06   -0.13567E-05  5978   0.138E-04    0.167E-05
RMM:  11    -0.432317608786E-01    0.51637E-06    0.21185E-06  6552   0.129E-04    0.962E-06
 Linear response progress:
  Degree of freedom: 126/162
       N       E                     dE             d eps       ncg     rms          rms(c)
RMM:   1    -0.463909236973E-01   -0.46391E-01    0.42631E-02  5703   0.280E-01
RMM:   2    -0.435284446775E-01    0.28625E-02   -0.30120E-03  3622   0.797E-02    0.434E-02
RMM:   3    -0.435383510804E-01   -0.99064E-05   -0.16393E-04  3811   0.192E-02    0.252E-02
RMM:   4    -0.435507853339E-01   -0.12434E-04   -0.12498E-05  3943   0.540E-03    0.130E-02
RMM:   5    -0.435537808336E-01   -0.29955E-05   -0.47606E-06  3938   0.315E-03    0.513E-03
RMM:   6    -0.435526894241E-01    0.10914E-05   -0.10453E-06  3938   0.152E-03    0.141E-03
RMM:   7    -0.435517793599E-01    0.91006E-06   -0.73282E-07  4298   0.507E-04    0.556E-04
 Linear response progress:
  Degree of freedom: 127/162
       N       E                     dE             d eps       ncg     rms          rms(c)
RMM:   1    -0.454782734216E-01   -0.45478E-01    0.35572E-02  5485   0.276E-01
RMM:   2    -0.433551938738E-01    0.21231E-02   -0.27846E-03  3653   0.757E-02    0.439E-02
RMM:   3    -0.434080090573E-01   -0.52815E-04   -0.14360E-04  3818   0.180E-02    0.252E-02
RMM:   4    -0.434417270136E-01   -0.33718E-04   -0.20032E-05  3932   0.570E-03    0.134E-02
RMM:   5    -0.434580207164E-01   -0.16294E-04   -0.82453E-06  3935   0.353E-03    0.443E-03
RMM:   6    -0.434549429384E-01    0.30778E-05   -0.50675E-06  4053   0.136E-03    0.156E-03
RMM:   7    -0.434464765342E-01    0.84664E-05   -0.68084E-06  4201   0.599E-04    0.462E-04
RMM:   8    -0.434443299214E-01    0.21466E-05   -0.68498E-06  4527   0.270E-04    0.148E-04
RMM:   9    -0.434449043069E-01   -0.57439E-06   -0.42908E-06  5167   0.152E-04    0.475E-05
 Linear response progress:
  Degree of freedom: 128/162
       N       E                     dE             d eps       ncg     rms          rms(c)
RMM:   1    -0.458040775626E-01   -0.45804E-01    0.37723E-02  5475   0.278E-01
RMM:   2    -0.431739200681E-01    0.26302E-02   -0.28822E-03  3648   0.777E-02    0.415E-02
RMM:   3    -0.432029778984E-01   -0.29058E-04   -0.15764E-04  3841   0.184E-02    0.239E-02
RMM:   4    -0.432297097000E-01   -0.26732E-04   -0.18150E-05  3959   0.561E-03    0.112E-02
RMM:   5    -0.432365172782E-01   -0.68076E-05   -0.13003E-05  3961   0.298E-03    0.420E-03
RMM:   6    -0.432368143891E-01   -0.29711E-06   -0.12220E-05  4029   0.125E-03    0.147E-03
RMM:   7    -0.432333331370E-01    0.34813E-05   -0.14775E-05  4317   0.510E-04    0.551E-04
RMM:   8    -0.432318373613E-01    0.14958E-05   -0.14188E-05  4520   0.292E-04    0.135E-04
RMM:   9    -0.432320502787E-01   -0.21292E-06   -0.13305E-05  5376   0.159E-04    0.508E-05
RMM:  10    -0.432321929777E-01   -0.14270E-06   -0.13275E-05  5989   0.138E-04    0.167E-05
RMM:  11    -0.432317985943E-01    0.39438E-06    0.65673E-06  6539   0.129E-04    0.961E-06
 Linear response progress:
  Degree of freedom: 129/162
       N       E                     dE             d eps       ncg     rms          rms(c)
RMM:   1    -0.464116261759E-01   -0.46412E-01    0.42418E-02  5709   0.280E-01
RMM:   2    -0.435285581790E-01    0.28831E-02   -0.30171E-03  3625   0.797E-02    0.434E-02
RMM:   3    -0.435384124735E-01   -0.98543E-05   -0.16407E-04  3814   0.192E-02    0.252E-02
RMM:   4    -0.435508437622E-01   -0.12431E-04   -0.12521E-05  3942   0.540E-03    0.130E-02
RMM:   5    -0.435538405432E-01   -0.29968E-05   -0.47861E-06  3939   0.315E-03    0.513E-03
RMM:   6    -0.435527501939E-01    0.10903E-05   -0.10711E-06  3936   0.152E-03    0.141E-03
RMM:   7    -0.435518437460E-01    0.90645E-06   -0.78175E-07  4299   0.507E-04    0.556E-04
 Linear response progress:
  Degree of freedom: 130/162
       N       E                     dE             d eps       ncg     rms          rms(c)
RMM:   1    -0.454782741846E-01   -0.45478E-01    0.35572E-02  5485   0.276E-01
RMM:   2    -0.433551849418E-01    0.21231E-02   -0.27847E-03  3653   0.757E-02    0.439E-02
RMM:   3    -0.434079987017E-01   -0.52814E-04   -0.14351E-04  3818   0.180E-02    0.252E-02
RMM:   4    -0.434417249460E-01   -0.33726E-04   -0.20036E-05  3930   0.570E-03    0.134E-02
RMM:   5    -0.434580209371E-01   -0.16296E-04   -0.82597E-06  3935   0.353E-03    0.443E-03
RMM:   6    -0.434549435320E-01    0.30774E-05   -0.50845E-06  4053   0.136E-03    0.156E-03
RMM:   7    -0.434464776256E-01    0.84659E-05   -0.68288E-06  4202   0.598E-04    0.462E-04
RMM:   8    -0.434443243043E-01    0.21533E-05   -0.66791E-06  4523   0.270E-04    0.148E-04
RMM:   9    -0.434448882224E-01   -0.56392E-06   -0.16055E-06  5175   0.151E-04    0.475E-05
 Linear response progress:
  Degree of freedom: 131/162
       N       E                     dE             d eps       ncg     rms          rms(c)
RMM:   1    -0.458040784334E-01   -0.45804E-01    0.37723E-02  5475   0.278E-01
RMM:   2    -0.431739306769E-01    0.26301E-02   -0.28841E-03  3651   0.777E-02    0.415E-02
RMM:   3    -0.432030060606E-01   -0.29075E-04   -0.15783E-04  3842   0.184E-02    0.239E-02
RMM:   4    -0.432297227432E-01   -0.26717E-04   -0.18176E-05  3961   0.561E-03    0.112E-02
RMM:   5    -0.432365236758E-01   -0.68009E-05   -0.13002E-05  3963   0.298E-03    0.420E-03
RMM:   6    -0.432368200886E-01   -0.29641E-06   -0.12232E-05  4026   0.125E-03    0.147E-03
RMM:   7    -0.432333393939E-01    0.34807E-05   -0.14805E-05  4316   0.510E-04    0.551E-04
RMM:   8    -0.432318385446E-01    0.15008E-05   -0.13761E-05  4524   0.291E-04    0.135E-04
RMM:   9    -0.432320007354E-01   -0.16219E-06   -0.11193E-05  5388   0.159E-04    0.508E-05
RMM:  10    -0.432322702203E-01   -0.26948E-06   -0.12307E-05  6016   0.136E-04    0.167E-05
RMM:  11    -0.432317780842E-01    0.49214E-06    0.32327E-06  6594   0.128E-04    0.962E-06
 Linear response progress:
  Degree of freedom: 132/162
       N       E                     dE             d eps       ncg     rms          rms(c)
RMM:   1    -0.464116270735E-01   -0.46412E-01    0.42418E-02  5709   0.280E-01
RMM:   2    -0.435285470370E-01    0.28831E-02   -0.30170E-03  3627   0.797E-02    0.434E-02
RMM:   3    -0.435383949896E-01   -0.98480E-05   -0.16393E-04  3817   0.192E-02    0.252E-02
RMM:   4    -0.435508395342E-01   -0.12445E-04   -0.12507E-05  3943   0.540E-03    0.130E-02
RMM:   5    -0.435538354190E-01   -0.29959E-05   -0.47714E-06  3938   0.315E-03    0.513E-03
RMM:   6    -0.435527454265E-01    0.10900E-05   -0.10605E-06  3937   0.152E-03    0.141E-03
RMM:   7    -0.435518377500E-01    0.90768E-06   -0.75686E-07  4299   0.507E-04    0.556E-04
 Linear response progress:
  Degree of freedom: 133/162
       N       E                     dE             d eps       ncg     rms          rms(c)
RMM:   1    -0.454881997630E-01   -0.45488E-01    0.35472E-02  5477   0.276E-01
RMM:   2    -0.433551893854E-01    0.21330E-02   -0.27901E-03  3655   0.758E-02    0.439E-02
RMM:   3    -0.434080143961E-01   -0.52825E-04   -0.14373E-04  3819   0.181E-02    0.252E-02
RMM:   4    -0.434417257764E-01   -0.33711E-04   -0.20039E-05  3933   0.571E-03    0.134E-02
RMM:   5    -0.434580188226E-01   -0.16293E-04   -0.82388E-06  3935   0.353E-03    0.443E-03
RMM:   6    -0.434549428351E-01    0.30760E-05   -0.50624E-06  4054   0.136E-03    0.156E-03
RMM:   7    -0.434464778776E-01    0.84650E-05   -0.68047E-06  4202   0.598E-04    0.462E-04
RMM:   8    -0.434443247425E-01    0.21531E-05   -0.66432E-06  4528   0.270E-04    0.148E-04
RMM:   9    -0.434449289450E-01   -0.60420E-06   -0.28347E-06  5172   0.152E-04    0.475E-05
 Linear response progress:
  Degree of freedom: 134/162
       N       E                     dE             d eps       ncg     rms          rms(c)
RMM:   1    -0.458036011095E-01   -0.45804E-01    0.37719E-02  5481   0.277E-01
RMM:   2    -0.431737694263E-01    0.26298E-02   -0.28825E-03  3654   0.777E-02    0.415E-02
RMM:   3    -0.432030042754E-01   -0.29235E-04   -0.15784E-04  3840   0.184E-02    0.239E-02
RMM:   4    -0.432297278394E-01   -0.26724E-04   -0.18158E-05  3960   0.561E-03    0.112E-02
RMM:   5    -0.432365336247E-01   -0.68058E-05   -0.13000E-05  3960   0.298E-03    0.420E-03
RMM:   6    -0.432368292521E-01   -0.29563E-06   -0.12221E-05  4029   0.125E-03    0.147E-03
RMM:   7    -0.432333458213E-01    0.34834E-05   -0.14783E-05  4315   0.510E-04    0.551E-04
RMM:   8    -0.432318463813E-01    0.14994E-05   -0.13713E-05  4518   0.292E-04    0.135E-04
RMM:   9    -0.432319906401E-01   -0.14426E-06   -0.10978E-05  5393   0.159E-04    0.508E-05
RMM:  10    -0.432323991158E-01   -0.40848E-06   -0.14077E-05  6016   0.137E-04    0.167E-05
RMM:  11    -0.432317197160E-01    0.67940E-06   -0.15985E-06  6585   0.128E-04    0.962E-06
 Linear response progress:
  Degree of freedom: 135/162
       N       E                     dE             d eps       ncg     rms          rms(c)
RMM:   1    -0.463917038340E-01   -0.46392E-01    0.42617E-02  5702   0.280E-01
RMM:   2    -0.435284377494E-01    0.28633E-02   -0.30158E-03  3627   0.797E-02    0.434E-02
RMM:   3    -0.435383954790E-01   -0.99577E-05   -0.16383E-04  3815   0.192E-02    0.252E-02
RMM:   4    -0.435508404676E-01   -0.12445E-04   -0.12461E-05  3941   0.540E-03    0.130E-02
RMM:   5    -0.435538388956E-01   -0.29984E-05   -0.47439E-06  3937   0.315E-03    0.513E-03
RMM:   6    -0.435527508432E-01    0.10881E-05   -0.10340E-06  3939   0.152E-03    0.141E-03
RMM:   7    -0.435518420506E-01    0.90879E-06   -0.72341E-07  4298   0.507E-04    0.556E-04
 Linear response progress:
  Degree of freedom: 136/162
       N       E                     dE             d eps       ncg     rms          rms(c)
RMM:   1    -0.454881998098E-01   -0.45488E-01    0.35472E-02  5477   0.276E-01
RMM:   2    -0.433551651171E-01    0.21330E-02   -0.27901E-03  3658   0.758E-02    0.439E-02
RMM:   3    -0.434080087106E-01   -0.52844E-04   -0.14365E-04  3817   0.181E-02    0.252E-02
RMM:   4    -0.434417292257E-01   -0.33721E-04   -0.20025E-05  3933   0.571E-03    0.134E-02
RMM:   5    -0.434580229519E-01   -0.16294E-04   -0.82415E-06  3934   0.353E-03    0.443E-03
RMM:   6    -0.434549464099E-01    0.30765E-05   -0.50655E-06  4056   0.136E-03    0.156E-03
RMM:   7    -0.434464806777E-01    0.84657E-05   -0.68088E-06  4201   0.598E-04    0.462E-04
RMM:   8    -0.434443282076E-01    0.21525E-05   -0.67341E-06  4523   0.270E-04    0.148E-04
RMM:   9    -0.434449409561E-01   -0.61275E-06   -0.42673E-06  5177   0.152E-04    0.474E-05
 Linear response progress:
  Degree of freedom: 137/162
       N       E                     dE             d eps       ncg     rms          rms(c)
RMM:   1    -0.458036012703E-01   -0.45804E-01    0.37719E-02  5479   0.277E-01
RMM:   2    -0.431737652323E-01    0.26298E-02   -0.28818E-03  3650   0.777E-02    0.415E-02
RMM:   3    -0.432029815369E-01   -0.29216E-04   -0.15768E-04  3841   0.184E-02    0.239E-02
RMM:   4    -0.432297225691E-01   -0.26741E-04   -0.18138E-05  3959   0.561E-03    0.112E-02
RMM:   5    -0.432365298823E-01   -0.68073E-05   -0.12981E-05  3959   0.298E-03    0.420E-03
RMM:   6    -0.432368254677E-01   -0.29559E-06   -0.12200E-05  4025   0.125E-03    0.147E-03
RMM:   7    -0.432333434828E-01    0.34820E-05   -0.14772E-05  4318   0.510E-04    0.551E-04
RMM:   8    -0.432318510360E-01    0.14924E-05   -0.14274E-05  4516   0.292E-04    0.135E-04
RMM:   9    -0.432320537562E-01   -0.20272E-06   -0.13441E-05  5392   0.159E-04    0.508E-05
RMM:  10    -0.432320768850E-01   -0.23129E-07   -0.12807E-05  6007   0.137E-04    0.167E-05
RMM:  11    -0.432317551949E-01    0.32169E-06    0.12769E-05  6582   0.128E-04    0.963E-06
RMM:  12    -0.432318592763E-01   -0.10408E-06    0.99487E-06  6598   0.128E-04    0.401E-06
 Linear response progress:
  Degree of freedom: 138/162
       N       E                     dE             d eps       ncg     rms          rms(c)
RMM:   1    -0.463917037250E-01   -0.46392E-01    0.42617E-02  5702   0.280E-01
RMM:   2    -0.435284739627E-01    0.28632E-02   -0.30159E-03  3625   0.797E-02    0.434E-02
RMM:   3    -0.435384210181E-01   -0.99471E-05   -0.16409E-04  3813   0.192E-02    0.252E-02
RMM:   4    -0.435508479245E-01   -0.12427E-04   -0.12523E-05  3942   0.540E-03    0.130E-02
RMM:   5    -0.435538461087E-01   -0.29982E-05   -0.47856E-06  3936   0.315E-03    0.513E-03
RMM:   6    -0.435527567425E-01    0.10894E-05   -0.10688E-06  3938   0.152E-03    0.141E-03
RMM:   7    -0.435518491622E-01    0.90758E-06   -0.76491E-07  4297   0.507E-04    0.556E-04
 Linear response progress:
  Degree of freedom: 139/162
       N       E                     dE             d eps       ncg     rms          rms(c)
RMM:   1    -0.454661540633E-01   -0.45466E-01    0.35691E-02  5477   0.276E-01
RMM:   2    -0.433552347676E-01    0.21109E-02   -0.27879E-03  3653   0.757E-02    0.439E-02
RMM:   3    -0.434079941276E-01   -0.52759E-04   -0.14355E-04  3821   0.181E-02    0.252E-02
RMM:   4    -0.434417265581E-01   -0.33732E-04   -0.20042E-05  3933   0.571E-03    0.134E-02
RMM:   5    -0.434580264082E-01   -0.16300E-04   -0.82644E-06  3935   0.353E-03    0.443E-03
RMM:   6    -0.434549489962E-01    0.30774E-05   -0.50898E-06  4054   0.136E-03    0.156E-03
RMM:   7    -0.434464804661E-01    0.84685E-05   -0.68288E-06  4202   0.598E-04    0.462E-04
RMM:   8    -0.434443259974E-01    0.21545E-05   -0.68286E-06  4525   0.270E-04    0.148E-04
RMM:   9    -0.434449397830E-01   -0.61379E-06   -0.54949E-06  5175   0.151E-04    0.474E-05
 Linear response progress:
  Degree of freedom: 140/162
       N       E                     dE             d eps       ncg     rms          rms(c)
RMM:   1    -0.458022151646E-01   -0.45802E-01    0.37737E-02  5485   0.278E-01
RMM:   2    -0.431739598969E-01    0.26283E-02   -0.28818E-03  3653   0.777E-02    0.415E-02
RMM:   3    -0.432030002252E-01   -0.29040E-04   -0.15772E-04  3840   0.184E-02    0.239E-02
RMM:   4    -0.432297270197E-01   -0.26727E-04   -0.18165E-05  3962   0.561E-03    0.112E-02
RMM:   5    -0.432365316268E-01   -0.68046E-05   -0.13002E-05  3959   0.298E-03    0.420E-03
RMM:   6    -0.432368263924E-01   -0.29477E-06   -0.12226E-05  4029   0.125E-03    0.147E-03
RMM:   7    -0.432333442080E-01    0.34822E-05   -0.14798E-05  4318   0.510E-04    0.551E-04
RMM:   8    -0.432318483488E-01    0.14959E-05   -0.14298E-05  4519   0.292E-04    0.135E-04
RMM:   9    -0.432320181908E-01   -0.16984E-06   -0.13299E-05  5395   0.159E-04    0.508E-05
RMM:  10    -0.432320278254E-01   -0.96346E-08   -0.12456E-05  6013   0.137E-04    0.167E-05
RMM:  11    -0.432317989772E-01    0.22885E-06   -0.23194E-06  6602   0.128E-04    0.963E-06
 Linear response progress:
  Degree of freedom: 141/162
       N       E                     dE             d eps       ncg     rms          rms(c)
RMM:   1    -0.464066565833E-01   -0.46407E-01    0.42463E-02  5697   0.280E-01
RMM:   2    -0.435287895106E-01    0.28779E-02   -0.30167E-03  3627   0.797E-02    0.434E-02
RMM:   3    -0.435384222646E-01   -0.96328E-05   -0.16406E-04  3815   0.192E-02    0.252E-02
RMM:   4    -0.435508496280E-01   -0.12427E-04   -0.12542E-05  3943   0.540E-03    0.130E-02
RMM:   5    -0.435538433553E-01   -0.29937E-05   -0.47936E-06  3936   0.315E-03    0.513E-03
RMM:   6    -0.435527522019E-01    0.10912E-05   -0.10798E-06  3940   0.152E-03    0.141E-03
RMM:   7    -0.435518414484E-01    0.91075E-06   -0.75229E-07  4297   0.507E-04    0.556E-04
 Linear response progress:
  Degree of freedom: 142/162
       N       E                     dE             d eps       ncg     rms          rms(c)
RMM:   1    -0.454661544072E-01   -0.45466E-01    0.35691E-02  5475   0.276E-01
RMM:   2    -0.433552678905E-01    0.21109E-02   -0.27878E-03  3653   0.757E-02    0.439E-02
RMM:   3    -0.434080101423E-01   -0.52742E-04   -0.14370E-04  3819   0.181E-02    0.252E-02
RMM:   4    -0.434417256298E-01   -0.33715E-04   -0.20045E-05  3934   0.571E-03    0.134E-02
RMM:   5    -0.434580228594E-01   -0.16297E-04   -0.82376E-06  3935   0.353E-03    0.443E-03
RMM:   6    -0.434549456737E-01    0.30772E-05   -0.50606E-06  4053   0.136E-03    0.156E-03
RMM:   7    -0.434464769748E-01    0.84687E-05   -0.67981E-06  4202   0.599E-04    0.462E-04
RMM:   8    -0.434443259979E-01    0.21510E-05   -0.67438E-06  4529   0.270E-04    0.148E-04
RMM:   9    -0.434449230725E-01   -0.59707E-06   -0.35358E-06  5165   0.152E-04    0.474E-05
 Linear response progress:
  Degree of freedom: 143/162
       N       E                     dE             d eps       ncg     rms          rms(c)
RMM:   1    -0.458022154571E-01   -0.45802E-01    0.37737E-02  5485   0.278E-01
RMM:   2    -0.431739553596E-01    0.26283E-02   -0.28807E-03  3652   0.777E-02    0.415E-02
RMM:   3    -0.432029972162E-01   -0.29042E-04   -0.15770E-04  3839   0.184E-02    0.239E-02
RMM:   4    -0.432297211372E-01   -0.26724E-04   -0.18160E-05  3962   0.561E-03    0.112E-02
RMM:   5    -0.432365306610E-01   -0.68095E-05   -0.13024E-05  3960   0.298E-03    0.420E-03
RMM:   6    -0.432368255726E-01   -0.29491E-06   -0.12236E-05  4030   0.125E-03    0.147E-03
RMM:   7    -0.432333423614E-01    0.34832E-05   -0.14791E-05  4316   0.510E-04    0.551E-04
RMM:   8    -0.432318438025E-01    0.14986E-05   -0.13972E-05  4517   0.292E-04    0.135E-04
RMM:   9    -0.432320465235E-01   -0.20272E-06   -0.12425E-05  5390   0.159E-04    0.508E-05
RMM:  10    -0.432322800525E-01   -0.23353E-06   -0.12430E-05  5996   0.137E-04    0.167E-05
RMM:  11    -0.432317891442E-01    0.49091E-06    0.35171E-06  6589   0.129E-04    0.962E-06
 Linear response progress:
  Degree of freedom: 144/162
       N       E                     dE             d eps       ncg     rms          rms(c)
RMM:   1    -0.464066567924E-01   -0.46407E-01    0.42463E-02  5697   0.280E-01
RMM:   2    -0.435287641438E-01    0.28779E-02   -0.30167E-03  3625   0.797E-02    0.434E-02
RMM:   3    -0.435384151304E-01   -0.96510E-05   -0.16394E-04  3813   0.192E-02    0.252E-02
RMM:   4    -0.435508483645E-01   -0.12433E-04   -0.12491E-05  3942   0.540E-03    0.130E-02
RMM:   5    -0.435538434410E-01   -0.29951E-05   -0.47652E-06  3936   0.315E-03    0.513E-03
RMM:   6    -0.435527525719E-01    0.10909E-05   -0.10541E-06  3942   0.152E-03    0.141E-03
RMM:   7    -0.435518426081E-01    0.90996E-06   -0.73391E-07  4297   0.507E-04    0.556E-04
 Linear response progress:
  Degree of freedom: 145/162
       N       E                     dE             d eps       ncg     rms          rms(c)
RMM:   1    -0.454826883622E-01   -0.45483E-01    0.35527E-02  5472   0.276E-01
RMM:   2    -0.433552907973E-01    0.21274E-02   -0.27867E-03  3654   0.757E-02    0.439E-02
RMM:   3    -0.434079701426E-01   -0.52679E-04   -0.14360E-04  3819   0.180E-02    0.252E-02
RMM:   4    -0.434416857889E-01   -0.33716E-04   -0.20025E-05  3933   0.570E-03    0.134E-02
RMM:   5    -0.434579848681E-01   -0.16299E-04   -0.82249E-06  3935   0.353E-03    0.443E-03
RMM:   6    -0.434549103632E-01    0.30745E-05   -0.50479E-06  4052   0.136E-03    0.156E-03
RMM:   7    -0.434464449797E-01    0.84654E-05   -0.67906E-06  4202   0.598E-04    0.462E-04
RMM:   8    -0.434442929660E-01    0.21520E-05   -0.66676E-06  4529   0.270E-04    0.148E-04
RMM:   9    -0.434448536384E-01   -0.56067E-06   -0.33954E-06  5169   0.151E-04    0.475E-05
 Linear response progress:
  Degree of freedom: 146/162
       N       E                     dE             d eps       ncg     rms          rms(c)
RMM:   1    -0.458033085109E-01   -0.45803E-01    0.37733E-02  5472   0.278E-01
RMM:   2    -0.431738626994E-01    0.26294E-02   -0.28822E-03  3655   0.777E-02    0.415E-02
RMM:   3    -0.432029324514E-01   -0.29070E-04   -0.15786E-04  3842   0.184E-02    0.239E-02
RMM:   4    -0.432296494740E-01   -0.26717E-04   -0.18204E-05  3962   0.561E-03    0.112E-02
RMM:   5    -0.432364554712E-01   -0.68060E-05   -0.13033E-05  3961   0.298E-03    0.420E-03
RMM:   6    -0.432367503756E-01   -0.29490E-06   -0.12252E-05  4030   0.125E-03    0.147E-03
RMM:   7    -0.432332672681E-01    0.34831E-05   -0.14812E-05  4314   0.510E-04    0.551E-04
RMM:   8    -0.432317698913E-01    0.14974E-05   -0.14069E-05  4518   0.292E-04    0.135E-04
RMM:   9    -0.432319548969E-01   -0.18501E-06   -0.12476E-05  5381   0.160E-04    0.507E-05
RMM:  10    -0.432319233306E-01    0.31566E-07   -0.11226E-05  5972   0.138E-04    0.167E-05
RMM:  11    -0.432318078769E-01    0.11545E-06   -0.10390E-05  6536   0.130E-04    0.961E-06
RMM:  12    -0.432317973730E-01    0.10504E-07   -0.10949E-05  6562   0.130E-04    0.400E-06
RMM:  13    -0.432318228305E-01   -0.25457E-07   -0.98792E-06  6627   0.129E-04    0.136E-06
 Linear response progress:
  Degree of freedom: 147/162
       N       E                     dE             d eps       ncg     rms          rms(c)
RMM:   1    -0.464210680015E-01   -0.46421E-01    0.42317E-02  5693   0.280E-01
RMM:   2    -0.435284235309E-01    0.28926E-02   -0.30168E-03  3627   0.797E-02    0.434E-02
RMM:   3    -0.435383213753E-01   -0.98978E-05   -0.16389E-04  3813   0.192E-02    0.252E-02
RMM:   4    -0.435507601038E-01   -0.12439E-04   -0.12469E-05  3939   0.540E-03    0.130E-02
RMM:   5    -0.435537581911E-01   -0.29981E-05   -0.47510E-06  3938   0.315E-03    0.513E-03
RMM:   6    -0.435526690975E-01    0.10891E-05   -0.10341E-06  3936   0.152E-03    0.141E-03
RMM:   7    -0.435517621888E-01    0.90691E-06   -0.72470E-07  4297   0.507E-04    0.556E-04
 Linear response progress:
  Degree of freedom: 148/162
       N       E                     dE             d eps       ncg     rms          rms(c)
RMM:   1    -0.454826880745E-01   -0.45483E-01    0.35527E-02  5472   0.276E-01
RMM:   2    -0.433552742674E-01    0.21274E-02   -0.27867E-03  3654   0.757E-02    0.439E-02
RMM:   3    -0.434079647748E-01   -0.52691E-04   -0.14356E-04  3819   0.180E-02    0.252E-02
RMM:   4    -0.434416860139E-01   -0.33721E-04   -0.20043E-05  3933   0.570E-03    0.134E-02
RMM:   5    -0.434579840923E-01   -0.16298E-04   -0.82649E-06  3933   0.353E-03    0.443E-03
RMM:   6    -0.434549093744E-01    0.30747E-05   -0.50879E-06  4054   0.136E-03    0.156E-03
RMM:   7    -0.434464427952E-01    0.84666E-05   -0.68308E-06  4202   0.598E-04    0.462E-04
RMM:   8    -0.434442899701E-01    0.21528E-05   -0.66944E-06  4527   0.270E-04    0.148E-04
RMM:   9    -0.434448515799E-01   -0.56161E-06   -0.23119E-06  5179   0.151E-04    0.474E-05
 Linear response progress:
  Degree of freedom: 149/162
       N       E                     dE             d eps       ncg     rms          rms(c)
RMM:   1    -0.458033082298E-01   -0.45803E-01    0.37733E-02  5472   0.278E-01
RMM:   2    -0.431738441832E-01    0.26295E-02   -0.28817E-03  3653   0.777E-02    0.415E-02
RMM:   3    -0.432029005568E-01   -0.29056E-04   -0.15760E-04  3842   0.184E-02    0.239E-02
RMM:   4    -0.432296368538E-01   -0.26736E-04   -0.18119E-05  3961   0.561E-03    0.112E-02
RMM:   5    -0.432364468189E-01   -0.68100E-05   -0.12977E-05  3960   0.298E-03    0.420E-03
RMM:   6    -0.432367418504E-01   -0.29503E-06   -0.12199E-05  4028   0.125E-03    0.147E-03
RMM:   7    -0.432332594714E-01    0.34824E-05   -0.14766E-05  4317   0.510E-04    0.551E-04
RMM:   8    -0.432317612526E-01    0.14982E-05   -0.14007E-05  4518   0.292E-04    0.135E-04
RMM:   9    -0.432318685933E-01   -0.10734E-06   -0.11928E-05  5377   0.160E-04    0.508E-05
RMM:  10    -0.432320634959E-01   -0.19490E-06   -0.13224E-05  5977   0.138E-04    0.167E-05
RMM:  11    -0.432317636275E-01    0.29987E-06   -0.14305E-05  6520   0.130E-04    0.961E-06
RMM:  12    -0.432317755366E-01   -0.11909E-07   -0.17329E-05  6548   0.129E-04    0.399E-06
RMM:  13    -0.432317901570E-01   -0.14620E-07   -0.15471E-05  6617   0.129E-04    0.135E-06
 Linear response progress:
  Degree of freedom: 150/162
       N       E                     dE             d eps       ncg     rms          rms(c)
RMM:   1    -0.464210678851E-01   -0.46421E-01    0.42317E-02  5693   0.280E-01
RMM:   2    -0.435284560957E-01    0.28926E-02   -0.30170E-03  3623   0.797E-02    0.434E-02
RMM:   3    -0.435383476144E-01   -0.98915E-05   -0.16415E-04  3810   0.192E-02    0.252E-02
RMM:   4    -0.435507731652E-01   -0.12426E-04   -0.12568E-05  3941   0.540E-03    0.130E-02
RMM:   5    -0.435537698435E-01   -0.29967E-05   -0.48211E-06  3941   0.315E-03    0.513E-03
RMM:   6    -0.435526810662E-01    0.10888E-05   -0.11064E-06  3935   0.152E-03    0.141E-03
RMM:   7    -0.435517741015E-01    0.90696E-06   -0.79838E-07  4298   0.507E-04    0.556E-04
 Linear response progress:
  Degree of freedom: 151/162
       N       E                     dE             d eps       ncg     rms          rms(c)
RMM:   1    -0.454620052523E-01   -0.45462E-01    0.35736E-02  5479   0.276E-01
RMM:   2    -0.433551624168E-01    0.21068E-02   -0.27859E-03  3653   0.757E-02    0.439E-02
RMM:   3    -0.434079632697E-01   -0.52801E-04   -0.14348E-04  3822   0.180E-02    0.252E-02
RMM:   4    -0.434416866643E-01   -0.33723E-04   -0.20026E-05  3933   0.570E-03    0.134E-02
RMM:   5    -0.434579805360E-01   -0.16294E-04   -0.82515E-06  3935   0.353E-03    0.443E-03
RMM:   6    -0.434549041566E-01    0.30764E-05   -0.50773E-06  4055   0.136E-03    0.156E-03
RMM:   7    -0.434464383213E-01    0.84658E-05   -0.68178E-06  4201   0.598E-04    0.462E-04
RMM:   8    -0.434442909649E-01    0.21474E-05   -0.68143E-06  4525   0.270E-04    0.148E-04
RMM:   9    -0.434448976377E-01   -0.60667E-06   -0.51350E-06  5173   0.151E-04    0.475E-05
 Linear response progress:
  Degree of freedom: 152/162
       N       E                     dE             d eps       ncg     rms          rms(c)
RMM:   1    -0.458010392644E-01   -0.45801E-01    0.37746E-02  5475   0.278E-01
RMM:   2    -0.431737100850E-01    0.26273E-02   -0.28854E-03  3649   0.778E-02    0.415E-02
RMM:   3    -0.432029120341E-01   -0.29202E-04   -0.15786E-04  3845   0.185E-02    0.239E-02
RMM:   4    -0.432296475061E-01   -0.26735E-04   -0.18170E-05  3962   0.561E-03    0.112E-02
RMM:   5    -0.432364581748E-01   -0.68107E-05   -0.13013E-05  3958   0.298E-03    0.420E-03
RMM:   6    -0.432367530613E-01   -0.29489E-06   -0.12234E-05  4026   0.125E-03    0.147E-03
RMM:   7    -0.432332701935E-01    0.34829E-05   -0.14801E-05  4315   0.510E-04    0.551E-04
RMM:   8    -0.432317753454E-01    0.14948E-05   -0.14273E-05  4520   0.292E-04    0.135E-04
RMM:   9    -0.432318872158E-01   -0.11187E-06   -0.12542E-05  5376   0.160E-04    0.508E-05
RMM:  10    -0.432322663999E-01   -0.37918E-06   -0.14540E-05  5954   0.139E-04    0.167E-05
RMM:  11    -0.432317456139E-01    0.52079E-06   -0.43312E-06  6491   0.131E-04    0.963E-06
 Linear response progress:
  Degree of freedom: 153/162
       N       E                     dE             d eps       ncg     rms          rms(c)
RMM:   1    -0.464041568142E-01   -0.46404E-01    0.42489E-02  5703   0.280E-01
RMM:   2    -0.435286580848E-01    0.28755E-02   -0.30172E-03  3625   0.797E-02    0.434E-02
RMM:   3    -0.435383505989E-01   -0.96925E-05   -0.16408E-04  3813   0.192E-02    0.252E-02
RMM:   4    -0.435507797657E-01   -0.12429E-04   -0.12572E-05  3943   0.540E-03    0.130E-02
RMM:   5    -0.435537755576E-01   -0.29958E-05   -0.48289E-06  3939   0.315E-03    0.513E-03
RMM:   6    -0.435526854475E-01    0.10901E-05   -0.11121E-06  3937   0.152E-03    0.141E-03
RMM:   7    -0.435517743014E-01    0.91115E-06   -0.77034E-07  4296   0.507E-04    0.556E-04
 Linear response progress:
  Degree of freedom: 154/162
       N       E                     dE             d eps       ncg     rms          rms(c)
RMM:   1    -0.454620054643E-01   -0.45462E-01    0.35736E-02  5479   0.276E-01
RMM:   2    -0.433551808631E-01    0.21068E-02   -0.27857E-03  3652   0.757E-02    0.439E-02
RMM:   3    -0.434079838403E-01   -0.52803E-04   -0.14364E-04  3820   0.180E-02    0.252E-02
RMM:   4    -0.434416946652E-01   -0.33711E-04   -0.20049E-05  3933   0.570E-03    0.134E-02
RMM:   5    -0.434579881481E-01   -0.16293E-04   -0.82431E-06  3935   0.353E-03    0.443E-03
RMM:   6    -0.434549114719E-01    0.30767E-05   -0.50653E-06  4053   0.136E-03    0.156E-03
RMM:   7    -0.434464461427E-01    0.84653E-05   -0.68032E-06  4202   0.598E-04    0.462E-04
RMM:   8    -0.434442924770E-01    0.21537E-05   -0.67062E-06  4529   0.270E-04    0.148E-04
RMM:   9    -0.434448871180E-01   -0.59464E-06   -0.30665E-06  5178   0.151E-04    0.475E-05
 Linear response progress:
  Degree of freedom: 155/162
       N       E                     dE             d eps       ncg     rms          rms(c)
RMM:   1    -0.458010395875E-01   -0.45801E-01    0.37746E-02  5473   0.278E-01
RMM:   2    -0.431737141163E-01    0.26273E-02   -0.28843E-03  3648   0.778E-02    0.415E-02
RMM:   3    -0.432029161311E-01   -0.29202E-04   -0.15791E-04  3842   0.185E-02    0.239E-02
RMM:   4    -0.432296467880E-01   -0.26731E-04   -0.18209E-05  3961   0.561E-03    0.112E-02
RMM:   5    -0.432364601379E-01   -0.68133E-05   -0.13059E-05  3959   0.298E-03    0.420E-03
RMM:   6    -0.432367549278E-01   -0.29479E-06   -0.12267E-05  4028   0.125E-03    0.147E-03
RMM:   7    -0.432332726927E-01    0.34822E-05   -0.14829E-05  4316   0.510E-04    0.551E-04
RMM:   8    -0.432317762246E-01    0.14965E-05   -0.13981E-05  4516   0.292E-04    0.135E-04
RMM:   9    -0.432319369449E-01   -0.16072E-06   -0.11783E-05  5386   0.160E-04    0.508E-05
RMM:  10    -0.432317833343E-01    0.15361E-06   -0.10077E-05  5957   0.138E-04    0.167E-05
RMM:  11    -0.432318360856E-01   -0.52751E-07   -0.57225E-06  6540   0.130E-04    0.961E-06
 Linear response progress:
  Degree of freedom: 156/162
       N       E                     dE             d eps       ncg     rms          rms(c)
RMM:   1    -0.464041570712E-01   -0.46404E-01    0.42489E-02  5703   0.280E-01
RMM:   2    -0.435286405339E-01    0.28755E-02   -0.30170E-03  3625   0.797E-02    0.434E-02
RMM:   3    -0.435383416024E-01   -0.97011E-05   -0.16394E-04  3813   0.192E-02    0.252E-02
RMM:   4    -0.435507767015E-01   -0.12435E-04   -0.12504E-05  3942   0.540E-03    0.130E-02
RMM:   5    -0.435537752110E-01   -0.29985E-05   -0.47823E-06  3937   0.315E-03    0.513E-03
RMM:   6    -0.435526860205E-01    0.10892E-05   -0.10666E-06  3940   0.152E-03    0.141E-03
RMM:   7    -0.435517762217E-01    0.90980E-06   -0.74134E-07  4296   0.507E-04    0.556E-04
 Linear response progress:
  Degree of freedom: 157/162
       N       E                     dE             d eps       ncg     rms          rms(c)
RMM:   1    -0.454750687467E-01   -0.45475E-01    0.35602E-02  5483   0.276E-01
RMM:   2    -0.433551217301E-01    0.21199E-02   -0.27840E-03  3655   0.757E-02    0.439E-02
RMM:   3    -0.434079823450E-01   -0.52861E-04   -0.14364E-04  3821   0.180E-02    0.252E-02
RMM:   4    -0.434416962453E-01   -0.33714E-04   -0.20051E-05  3932   0.570E-03    0.134E-02
RMM:   5    -0.434579900231E-01   -0.16294E-04   -0.82625E-06  3936   0.353E-03    0.443E-03
RMM:   6    -0.434549130712E-01    0.30770E-05   -0.50838E-06  4054   0.136E-03    0.156E-03
RMM:   7    -0.434464476100E-01    0.84655E-05   -0.68232E-06  4200   0.598E-04    0.462E-04
RMM:   8    -0.434442926649E-01    0.21549E-05   -0.67417E-06  4528   0.270E-04    0.148E-04
RMM:   9    -0.434448922576E-01   -0.59959E-06   -0.31486E-06  5180   0.151E-04    0.475E-05
 Linear response progress:
  Degree of freedom: 158/162
       N       E                     dE             d eps       ncg     rms          rms(c)
RMM:   1    -0.458023869691E-01   -0.45802E-01    0.37730E-02  5473   0.277E-01
RMM:   2    -0.431737158257E-01    0.26287E-02   -0.28831E-03  3649   0.777E-02    0.415E-02
RMM:   3    -0.432029047325E-01   -0.29189E-04   -0.15762E-04  3838   0.184E-02    0.239E-02
RMM:   4    -0.432296347104E-01   -0.26730E-04   -0.18129E-05  3958   0.561E-03    0.112E-02
RMM:   5    -0.432364427666E-01   -0.68081E-05   -0.12983E-05  3961   0.298E-03    0.420E-03
RMM:   6    -0.432367381436E-01   -0.29538E-06   -0.12202E-05  4027   0.125E-03    0.147E-03
RMM:   7    -0.432332576670E-01    0.34805E-05   -0.14770E-05  4318   0.510E-04    0.551E-04
RMM:   8    -0.432317591557E-01    0.14985E-05   -0.13903E-05  4516   0.292E-04    0.135E-04
RMM:   9    -0.432318896572E-01   -0.13050E-06   -0.11864E-05  5377   0.160E-04    0.508E-05
RMM:  10    -0.432318659643E-01    0.23693E-07   -0.10852E-05  5982   0.138E-04    0.166E-05
RMM:  11    -0.432317288378E-01    0.13713E-06   -0.74999E-06  6536   0.130E-04    0.962E-06
 Linear response progress:
  Degree of freedom: 159/162
       N       E                     dE             d eps       ncg     rms          rms(c)
RMM:   1    -0.464027264079E-01   -0.46403E-01    0.42503E-02  5700   0.280E-01
RMM:   2    -0.435284076110E-01    0.28743E-02   -0.30141E-03  3623   0.797E-02    0.434E-02
RMM:   3    -0.435383606483E-01   -0.99530E-05   -0.16404E-04  3809   0.192E-02    0.252E-02
RMM:   4    -0.435507808574E-01   -0.12420E-04   -0.12549E-05  3943   0.540E-03    0.130E-02
RMM:   5    -0.435537725592E-01   -0.29917E-05   -0.48147E-06  3938   0.315E-03    0.513E-03
RMM:   6    -0.435526813838E-01    0.10912E-05   -0.11002E-06  3938   0.152E-03    0.142E-03
RMM:   7    -0.435517727021E-01    0.90868E-06   -0.77287E-07  4297   0.507E-04    0.556E-04
 Linear response progress:
  Degree of freedom: 160/162
       N       E                     dE             d eps       ncg     rms          rms(c)
RMM:   1    -0.454750688952E-01   -0.45475E-01    0.35602E-02  5483   0.276E-01
RMM:   2    -0.433551212633E-01    0.21199E-02   -0.27842E-03  3655   0.757E-02    0.439E-02
RMM:   3    -0.434079651592E-01   -0.52844E-04   -0.14350E-04  3823   0.180E-02    0.252E-02
RMM:   4    -0.434416859395E-01   -0.33721E-04   -0.20008E-05  3932   0.570E-03    0.134E-02
RMM:   5    -0.434579808600E-01   -0.16295E-04   -0.82286E-06  3935   0.353E-03    0.443E-03
RMM:   6    -0.434549045147E-01    0.30763E-05   -0.50536E-06  4054   0.136E-03    0.156E-03
RMM:   7    -0.434464397183E-01    0.84648E-05   -0.67960E-06  4199   0.598E-04    0.462E-04
RMM:   8    -0.434442873555E-01    0.21524E-05   -0.66648E-06  4529   0.270E-04    0.148E-04
RMM:   9    -0.434448817870E-01   -0.59443E-06   -0.32435E-06  5176   0.151E-04    0.475E-05
 Linear response progress:
  Degree of freedom: 161/162
       N       E                     dE             d eps       ncg     rms          rms(c)
RMM:   1    -0.458023873089E-01   -0.45802E-01    0.37730E-02  5475   0.277E-01
RMM:   2    -0.431737309171E-01    0.26287E-02   -0.28847E-03  3654   0.777E-02    0.415E-02
RMM:   3    -0.432029352157E-01   -0.29204E-04   -0.15785E-04  3839   0.184E-02    0.239E-02
RMM:   4    -0.432296508730E-01   -0.26716E-04   -0.18201E-05  3961   0.561E-03    0.112E-02
RMM:   5    -0.432364531027E-01   -0.68022E-05   -0.13017E-05  3963   0.298E-03    0.420E-03
RMM:   6    -0.432367480305E-01   -0.29493E-06   -0.12247E-05  4027   0.125E-03    0.147E-03
RMM:   7    -0.432332654614E-01    0.34826E-05   -0.14807E-05  4317   0.510E-04    0.551E-04
RMM:   8    -0.432317694811E-01    0.14960E-05   -0.14340E-05  4523   0.292E-04    0.135E-04
RMM:   9    -0.432319166248E-01   -0.14714E-06   -0.13298E-05  5378   0.160E-04    0.508E-05
RMM:  10    -0.432321474848E-01   -0.23086E-06   -0.14749E-05  5969   0.138E-04    0.167E-05
RMM:  11    -0.432316796798E-01    0.46781E-06   -0.86264E-07  6531   0.130E-04    0.962E-06
 Linear response progress:
  Degree of freedom: 162/162
       N       E                     dE             d eps       ncg     rms          rms(c)
RMM:   1    -0.464027265491E-01   -0.46403E-01    0.42503E-02  5700   0.280E-01
RMM:   2    -0.435283932812E-01    0.28743E-02   -0.30142E-03  3627   0.797E-02    0.434E-02
RMM:   3    -0.435383465110E-01   -0.99532E-05   -0.16392E-04  3813   0.192E-02    0.252E-02
RMM:   4    -0.435507757401E-01   -0.12429E-04   -0.12521E-05  3944   0.540E-03    0.130E-02
RMM:   5    -0.435537663332E-01   -0.29906E-05   -0.47946E-06  3939   0.315E-03    0.513E-03
RMM:   6    -0.435526743227E-01    0.10920E-05   -0.10771E-06  3935   0.152E-03    0.141E-03
RMM:   7    -0.435517644541E-01    0.90987E-06   -0.74071E-07  4297   0.507E-04    0.556E-04
 Linear response finished
