generated by phonopy
   1.0
     9.0247480000000007    0.0000000000000000    0.0000000000000000
    -6.7685610000000000   11.7234929999999995    0.0000000000000000
     0.0000000000000000    0.0000000000000000   18.0584939700000007
Te
  54
Direct
  0.1333545723734629  0.0000000000000000  0.1111110000000011
  0.6333545723734629  0.0000000000000000  0.1111110000000011
  0.1333545723734629  0.3333333333333333  0.1111110000000011
  0.6333545723734629  0.3333333333333333  0.1111110000000011
  0.1333545723734629  0.6666666666666666  0.1111110000000011
  0.6333545723734629  0.6666666666666666  0.1111110000000011
  0.1333545723734629  0.0000000000000000  0.4444443333333344
  0.6333545723734629  0.0000000000000000  0.4444443333333344
  0.1333545723734629  0.3333333333333333  0.4444443333333344
  0.6333545723734629  0.3333333333333333  0.4444443333333344
  0.1333545723734629  0.6666666666666666  0.4444443333333344
  0.6333545723734629  0.6666666666666666  0.4444443333333344
  0.1333545723734629  0.0000000000000000  0.7777776666666678
  0.6333545723734629  0.0000000000000000  0.7777776666666678
  0.1333545723734629  0.3333333333333333  0.7777776666666678
  0.6333545723734629  0.3333333333333333  0.7777776666666678
  0.1333545723734629  0.6666666666666666  0.7777776666666678
  0.6333545723734629  0.6666666666666666  0.7777776666666678
  0.9988919358191497  0.0889030482489753  0.2222223333333322
  0.4999999999999999  0.0889030482489753  0.2222223333333322
  0.0000000000000000  0.4222363815823086  0.2222223333333322
  0.5000000000000000  0.4222363815823086  0.2222223333333322
  0.0000000000000000  0.7555697149156418  0.2222223333333322
  0.4999999999999999  0.7555697149156418  0.2222223333333322
  0.0000000000000000  0.0889030482489753  0.5555556666666656
  0.4999999999999999  0.0889030482489753  0.5555556666666656
  0.0000000000000000  0.4222363815823086  0.5555556666666656
  0.5000000000000000  0.4222363815823086  0.5555556666666656
  0.0000000000000000  0.7555697149156418  0.5555556666666656
  0.4999999999999999  0.7555697149156418  0.5555556666666656
  0.0000000000000000  0.0889030482489753  0.8888889999999990
  0.4999999999999999  0.0889030482489753  0.8888889999999990
  0.0000000000000000  0.4222363815823086  0.8888889999999990
  0.5000000000000000  0.4222363815823086  0.8888889999999990
  0.0000000000000000  0.7555697149156418  0.8888889999999990
  0.4999999999999999  0.7555697149156418  0.8888889999999990
  0.3666454276265371  0.2444302850843581  0.0000000000000000
  0.8666454276265371  0.2444302850843581  0.0000000000000000
  0.3666454276265371  0.5777636184176914  0.0000000000000000
  0.8666454276265371  0.5777636184176914  0.0000000000000000
  0.3666454276265370  0.9110969517510248  0.0000000000000000
  0.8666454276265371  0.9110969517510248  0.0000000000000000
  0.3666454276265371  0.2444302850843581  0.3333333333333333
  0.8666454276265371  0.2444302850843581  0.3333333333333333
  0.3666454276265371  0.5777636184176914  0.3333333333333333
  0.8666454276265371  0.5777636184176914  0.3333333333333333
  0.3666454276265370  0.9110969517510248  0.3333333333333333
  0.8666454276265371  0.9110969517510248  0.3333333333333333
  0.3666454276265371  0.2444302850843581  0.6666666666666666
  0.8666454276265371  0.2444302850843581  0.6666666666666666
  0.3666454276265371  0.5777636184176914  0.6666666666666666
  0.8666454276265371  0.5777636184176914  0.6666666666666666
  0.3666454276265370  0.9110969517510248  0.6666666666666666
  0.8666454276265371  0.9110969517510248  0.6666666666666666
