unknown system                          
           1
     9.024748    0.000000    0.000000
    -6.768561   11.723493    0.000000
     0.000000    0.000000   18.058494
   Te
    54
Direct configuration=     1
   0.13335457  0.00000000  0.11111100
   0.63335457  0.00000000  0.11111100
   0.13335457  0.33333333  0.11111100
   0.63335457  0.33333333  0.11111100
   0.13335457  0.66666667  0.11111100
   0.63335457  0.66666667  0.11111100
   0.13335457  0.00000000  0.44444433
   0.63335457  0.00000000  0.44444433
   0.13335457  0.33333333  0.44444433
   0.63335457  0.33333333  0.44444433
   0.13335457  0.66666667  0.44444433
   0.63335457  0.66666667  0.44444433
   0.13335457  0.00000000  0.77777767
   0.63335457  0.00000000  0.77777767
   0.13335457  0.33333333  0.77777767
   0.63335457  0.33333333  0.77777767
   0.13335457  0.66666667  0.77777767
   0.63335457  0.66666667  0.77777767
   0.00000000  0.08890305  0.22222233
   0.50000000  0.08890305  0.22222233
   0.00000000  0.42223638  0.22222233
   0.50000000  0.42223638  0.22222233
   0.00000000  0.75556971  0.22222233
   0.50000000  0.75556971  0.22222233
   0.00000000  0.08890305  0.55555567
   0.50000000  0.08890305  0.55555567
   0.00000000  0.42223638  0.55555567
   0.50000000  0.42223638  0.55555567
   0.00000000  0.75556971  0.55555567
   0.50000000  0.75556971  0.55555567
   0.00000000  0.08890305  0.88888900
   0.50000000  0.08890305  0.88888900
   0.00000000  0.42223638  0.88888900
   0.50000000  0.42223638  0.88888900
   0.00000000  0.75556971  0.88888900
   0.50000000  0.75556971  0.88888900
   0.36664543  0.24443029  0.00000000
   0.86664543  0.24443029  0.00000000
   0.36664543  0.57776362  0.00000000
   0.86664543  0.57776362  0.00000000
   0.36664543  0.91109695  0.00000000
   0.86664543  0.91109695  0.00000000
   0.36664543  0.24443029  0.33333333
   0.86664543  0.24443029  0.33333333
   0.36664543  0.57776362  0.33333333
   0.86664543  0.57776362  0.33333333
   0.36664543  0.91109695  0.33333333
   0.86664543  0.91109695  0.33333333
   0.36664543  0.24443029  0.66666667
   0.86664543  0.24443029  0.66666667
   0.36664543  0.57776362  0.66666667
   0.86664543  0.57776362  0.66666667
   0.36664543  0.91109695  0.66666667
   0.86664543  0.91109695  0.66666667
